Li14 Mg1 Bi16 S16 O16                   
   1.00000000000000     
    11.1194170629884876   -0.0005053368317710    0.0000319140903725
    -0.0004533119859651    9.4028279068231306    0.0129438116104939
     0.0000347208436463    0.0156026112990575   11.1179247903173888
   Li   Mg   Bi   S    O 
    14     1    16    16    16
Direct
  0.3599488446949752 -0.0001681968218164  0.4373104217179686
  0.1249499263380519 -0.0009974439906272  0.2009218099445902
  0.3758281141339126 -0.0009279920463367  0.1844845649896745
  0.6191788557663094  0.0000917111637261  0.4373873278514276
  0.6237402721085463  0.9986640467421937  0.1880987069432673
  0.8746447522242780 -0.0016511812620977  0.1797728957292779
  0.1269976158646946 -0.0000088526506028  0.9373724696094445
  0.3721819994822848 -0.0000178705761455  0.9373754005365896
  0.1249189867236438  0.0010121073767155  0.6736657216047860
  0.3758826756184143  0.0009121719406048  0.6902848224166860
  0.6232495465548162  0.0000075213993282  0.9373973519996089
  0.8776485983934385  0.0000103988943160  0.9374280425158282
  0.6238116081556579  0.0013203679419022  0.6866572293863784
  0.8746061534148272  0.0016251719615552  0.6951027105354731
  0.8812629553083687  0.0000837779196784  0.4374701550067508
  0.0008889596773082  0.2992926081539269  0.0621827528767444
  0.2505989426330952  0.6990991321063613  0.0620565337318139
  0.2522756811014544  0.2959822617446890  0.3110978108569713
  0.4998855188379833  0.6994840190437044  0.3122029292040594
  0.4992390899635958  0.2993905248755394  0.0624776850927191
  0.7497963181181621  0.7002061011415656  0.0620569225678408
  0.7501222006074666  0.3078903238069359  0.3129971623434880
  0.0001292353269804  0.6938980458290497  0.3108542512832430
  0.0001222995486446  0.3062085671209105  0.5642770351385078
  0.2522762329456354  0.7038944331666678  0.5639852404517652
  0.2506110033524455  0.3008874670345215  0.8130186181284542
  0.4992394660685733  0.7005988100870780  0.8125816426598029
  0.4999019494033548  0.3005257813044308  0.5628664880494414
  0.7501424642014899  0.6921965977728942  0.5620987173664753
  0.7498027404675455  0.2997920365408426  0.8130260418287671
  0.0008682998752113  0.7007137338703801  0.8129273671786232
  0.2499073435843926  0.3482172675968544  0.0628312415417836
 -0.0005863628716766  0.6534664128453959  0.0619819827359341
  0.5006717991299965  0.3459642604874890  0.3129435867977731
  0.2505799143003003  0.6657061540519853  0.3121543548448009
  0.7500540595631079  0.3419848719533508  0.0625829083666837
  0.5008283578452449  0.6547813201102908  0.0622017603311553
  0.9989296655554096  0.3364750530973011  0.3139766961713434
  0.7507903019484989  0.6488104712517180  0.3127692042779461
  0.2505445647205131  0.3342724241357588  0.5631155442855565
 -0.0010270655898389  0.6635268082713279  0.5613458006985689
  0.5007995655298095  0.3452488413792889  0.8130942779685663
  0.2499256372959300  0.6518409016521215  0.8124422730190076
  0.7507591469374378  0.3512700311872931  0.5625393370946570
  0.5007240848347917  0.6540585037622355  0.5623524053570028
  0.9993831199604093  0.3465104396333990  0.8133396867924020
  0.7500762097103214  0.6579605015476317  0.8127089647788417
  0.5005179925790167  0.0775251783935151  0.0618306873278524
 -0.0198421564609469  0.9151357656079967  0.3044484290574790
  0.2505769382232997  0.9202409570451435  0.0594763959745574
  0.2628073738585608  0.0792865533593758  0.2984644428262444
 -0.0000696253129598  0.0776466156162265  0.0614997193429974
  0.5051399684063405  0.9208795056282107  0.3111720240589009
  0.7492566819739325  0.9226125003007994  0.0634760858048163
  0.7552492951695050  0.0819033563172428  0.3210373091900607
  0.5052202589837750  0.0791442036089094  0.5637616761572287
 -0.0001254449266712  0.9223473081083654  0.8134664022185397
  0.2628231429311986  0.9206209102710647  0.5763769567630160
  0.2506169332386339  0.0797508182667487  0.8154150980647634
  0.9802034909562013  0.0849376368881181  0.5705206630428545
  0.5005311751629857  0.9224603198446675  0.8130577645534389
  0.7553283793861768  0.9181821403526171  0.5539982708705224
  0.7492639464651355  0.0773857858356622  0.8114712201382882
 
  0.00000000E+00  0.00000000E+00  0.00000000E+00
  0.00000000E+00  0.00000000E+00  0.00000000E+00
  0.00000000E+00  0.00000000E+00  0.00000000E+00
  0.00000000E+00  0.00000000E+00  0.00000000E+00
  0.00000000E+00  0.00000000E+00  0.00000000E+00
  0.00000000E+00  0.00000000E+00  0.00000000E+00
  0.00000000E+00  0.00000000E+00  0.00000000E+00
  0.00000000E+00  0.00000000E+00  0.00000000E+00
  0.00000000E+00  0.00000000E+00  0.00000000E+00
  0.00000000E+00  0.00000000E+00  0.00000000E+00
  0.00000000E+00  0.00000000E+00  0.00000000E+00
  0.00000000E+00  0.00000000E+00  0.00000000E+00
  0.00000000E+00  0.00000000E+00  0.00000000E+00
  0.00000000E+00  0.00000000E+00  0.00000000E+00
  0.00000000E+00  0.00000000E+00  0.00000000E+00
  0.00000000E+00  0.00000000E+00  0.00000000E+00
  0.00000000E+00  0.00000000E+00  0.00000000E+00
  0.00000000E+00  0.00000000E+00  0.00000000E+00
  0.00000000E+00  0.00000000E+00  0.00000000E+00
  0.00000000E+00  0.00000000E+00  0.00000000E+00
  0.00000000E+00  0.00000000E+00  0.00000000E+00
  0.00000000E+00  0.00000000E+00  0.00000000E+00
  0.00000000E+00  0.00000000E+00  0.00000000E+00
  0.00000000E+00  0.00000000E+00  0.00000000E+00
  0.00000000E+00  0.00000000E+00  0.00000000E+00
  0.00000000E+00  0.00000000E+00  0.00000000E+00
  0.00000000E+00  0.00000000E+00  0.00000000E+00
  0.00000000E+00  0.00000000E+00  0.00000000E+00
  0.00000000E+00  0.00000000E+00  0.00000000E+00
  0.00000000E+00  0.00000000E+00  0.00000000E+00
  0.00000000E+00  0.00000000E+00  0.00000000E+00
  0.00000000E+00  0.00000000E+00  0.00000000E+00
  0.00000000E+00  0.00000000E+00  0.00000000E+00
  0.00000000E+00  0.00000000E+00  0.00000000E+00
  0.00000000E+00  0.00000000E+00  0.00000000E+00
  0.00000000E+00  0.00000000E+00  0.00000000E+00
  0.00000000E+00  0.00000000E+00  0.00000000E+00
  0.00000000E+00  0.00000000E+00  0.00000000E+00
  0.00000000E+00  0.00000000E+00  0.00000000E+00
  0.00000000E+00  0.00000000E+00  0.00000000E+00
  0.00000000E+00  0.00000000E+00  0.00000000E+00
  0.00000000E+00  0.00000000E+00  0.00000000E+00
  0.00000000E+00  0.00000000E+00  0.00000000E+00
  0.00000000E+00  0.00000000E+00  0.00000000E+00
  0.00000000E+00  0.00000000E+00  0.00000000E+00
  0.00000000E+00  0.00000000E+00  0.00000000E+00
  0.00000000E+00  0.00000000E+00  0.00000000E+00
  0.00000000E+00  0.00000000E+00  0.00000000E+00
  0.00000000E+00  0.00000000E+00  0.00000000E+00
  0.00000000E+00  0.00000000E+00  0.00000000E+00
  0.00000000E+00  0.00000000E+00  0.00000000E+00
  0.00000000E+00  0.00000000E+00  0.00000000E+00
  0.00000000E+00  0.00000000E+00  0.00000000E+00
  0.00000000E+00  0.00000000E+00  0.00000000E+00
  0.00000000E+00  0.00000000E+00  0.00000000E+00
  0.00000000E+00  0.00000000E+00  0.00000000E+00
  0.00000000E+00  0.00000000E+00  0.00000000E+00
  0.00000000E+00  0.00000000E+00  0.00000000E+00
  0.00000000E+00  0.00000000E+00  0.00000000E+00
  0.00000000E+00  0.00000000E+00  0.00000000E+00
  0.00000000E+00  0.00000000E+00  0.00000000E+00
  0.00000000E+00  0.00000000E+00  0.00000000E+00
  0.00000000E+00  0.00000000E+00  0.00000000E+00
