Li Mg Bi  S  O 
 1.0000000000000000
    11.1784999999999997    0.0000000000000000    0.0000000000000000
     0.0000000000000000    9.5746000000000002    0.0000000000000000
     0.0000000000000000    0.0000000000000000   11.1823999999999995
 Li  Mg  Bi  S   O  
   4   6  16  16  16
Direct
  0.2959925436017368 -0.0129090992847058  0.4335173084791637
  0.6209215959059308  0.9997286297042014  0.4370359703581936
  0.1209215959059254  0.9997286297041722  0.9370359703581248
  0.7959925436017767 -0.0129090992846462  0.9335173084793101
  0.1175475666122601  0.9905490580911719  0.1987974434061127
  0.8778772060376194 -0.0004109015378967  0.4380716136921110
  0.6248083486432769  1.0038682094830940  0.1798085106370446
  0.3778772060375942 -0.0004109015378888  0.9380716136920515
  0.1248083486434896  1.0038682094829880  0.6798085106369788
  0.6175475666119866  0.9905490580910815  0.6987974434061918
  0.0045117451890968  0.2974989037307887  0.0630541716343215
  0.2483146641717105  0.6926942202832023  0.0652188754172915
  0.2499467623462353  0.2988539866830377  0.3100638215493632
  0.5031421942736722  0.6991767565192895  0.3124439526860072
  0.4992868329371776  0.3051314285044831  0.0624209508649112
  0.7511317962519507  0.6915276606091156  0.0668339855587139
  0.7495246873392722  0.3092431937216775  0.3124591158067908
  0.9964470094476379  0.6903977423023014  0.3160791511104376
 -0.0007131670627926  0.3051314285048490  0.5624209508648782
  0.2511317962520114  0.6915276606085150  0.5668339855586892
  0.2495246873392714  0.3092431937217696  0.8124591158067639
  0.4964470094476400  0.6903977423022675  0.8160791511104704
  0.5045117451890928  0.2974989037310615  0.5630541716343235
  0.7483146641717366  0.6926942202830588  0.5652188754173200
  0.7499467623462392  0.2988539866825552  0.8100638215493194
  1.0031421942736620  0.6991767565192355  0.8124439526859859
  0.2515076200137766  0.3542306741687572  0.0630273070579358
 -0.0043422588720164  0.6564427670047750  0.0683686825000610
  0.5001367039345361  0.3375330432998408  0.3117354167175392
  0.2454830224205815  0.6995283620959941  0.3143203600550031
  0.7504405796904051  0.3207408706268549  0.0634123018143838
  0.5012473911328866  0.6521812505209047  0.0653849439638503
  0.9986333961392075  0.3423818132612737  0.3149590636564071
  0.7471754127648200  0.6417109562482808  0.3198529465965477
  0.2504405796904000  0.3207408706268410  0.5634123018144075
  0.0012473911328502  0.6521812505209158  0.5653849439638648
  0.4986333961391973  0.3423818132612001  0.8149590636564316
  0.2471754127648158  0.6417109562482700  0.8198529465965595
  0.7515076200137865  0.3542306741687531  0.5630273070579648
  0.4956577411280020  0.6564427670047575  0.5683686825000789
  1.0001367039345264  0.3375330432998399  0.8117354167175332
  0.7454830224205901  0.6995283620959838  0.8143203600549929
  0.4986225800237424  0.0860417093485588  0.0582200773727186
  0.2421293014576825  0.9122420201403684  0.0470731434813905
  0.2333913605778618  0.0866980424593496  0.3035456573474613
 -0.0093333114727754  0.9090605508223319  0.3156000055303365
  1.0320579428017511  0.0863394044016830  0.0680241080035236
  0.7368379535929255  0.9042573395812281  0.0742294949739422
  0.7426406485344753  0.0880743195012388  0.3248401190861044
  0.5317054877690632  0.9101355824189454  0.3076209069093336
  0.5320579428018308  0.0863394044016628  0.5680241080036029
  0.2368379535929424  0.9042573395817550  0.5742294949739262
  0.2426406485344885  0.0880743195012004  0.8248401190860666
  0.0317054877691831  0.9101355824189222  0.8076209069091435
  0.9986225800238355  0.0860417093481182  0.5582200773726760
  0.7421293014576883  0.9122420201405474  0.5470731434814043
  0.7333913605779195  0.0866980424594415  0.8035456573474193
  0.4906666885271320  0.9090605508222881  0.8156000055303245
