Li Mg Bi  S  O 
 1.0000000000000000
    11.1784999999999997    0.0000000000000000    0.0000000000000000
     0.0000000000000000    9.5746000000000002    0.0000000000000000
     0.0000000000000000    0.0000000000000000   11.1823999999999995
 Li  Mg  Bi  S   O  
  10   3  16  16  16
Direct
  0.3616395271941926 -0.0027292532573538  0.4348134086310144
  0.1261232731562987  0.9996612756202825  0.1965184253981132
  0.3949019352188540  0.0031147257736781  0.1887819282270927
  0.8901594349337985  0.0023136437703460  0.4344948467708291
  0.8596825357701191  0.0002498409905662  0.1894065323685081
  0.1247049627518553  0.9995287762350523  0.9438977519587579
  0.3669241155732625 -0.0008170977293321  0.9360051036610715
  0.4088684579786153 -0.0097873890143093  0.6787982442865804
  0.8828472748791417  0.0026147467565825  0.9360638318546667
  0.8430327648961945  0.0128808140505451  0.6765499714988232
  0.6256782367510035  1.0025922014370561  0.4346796812295474
  0.1259784467224186  0.9995223599617407  0.6855836515316681
  0.6252850945799432  1.0034136197296684  0.9357467322226193
  0.0002673194596831  0.2971577798147843  0.0644147266313626
  0.2492919285674197  0.7037225714824692  0.0651780399754318
  0.2523988746583030  0.2890622835788369  0.3087571359525261
  0.4978074367977702  0.6964338869289042  0.3155067882671899
  0.5007516004798217  0.3041835009960014  0.0597031401363785
  0.7499467014439375  0.7035126402739788  0.0599622740261496
  0.7515228422191762  0.3060334553625286  0.3142216886120497
  0.9982121254012060  0.7102733219310138  0.3094456378129183
  0.0008790789493479  0.3006757742345529  0.5639905309622909
  0.2501580485465205  0.6984872818421580  0.5659196731352929
  0.2476601606238739  0.3040768185797937  0.8138653086135896
  0.4990270725622195  0.6972120580581639  0.8148448795055805
  0.4995828444310663  0.3030840625397950  0.5595425786169934
  0.7500603574330826  0.7019267011409478  0.5590785718956043
  0.7502377232115128  0.3066658965511708  0.8132453006020229
  1.0022164402733467  0.6944134040496713  0.8133975020753763
  0.2514972373738843  0.3493550838534407  0.0625606771557112
  0.0004686804897284  0.6543532825161854  0.0633407430089645
  0.5025212925652702  0.3449177961853531  0.3141319255792248
  0.2504492599294078  0.6653006651488098  0.3161474256952377
  0.7499797007445342  0.3449701923963653  0.0625445814512329
  0.5008708981534161  0.6596706661668125  0.0655837106111583
  1.0012022277150612  0.3362618546341304  0.3136034510157266
  0.7498408116822087  0.6560404055739626  0.3140888046482909
  0.2492701574982082  0.3360877686908751  0.5641561566357872
  0.0006407826875763  0.6655145591643497  0.5647305061163934
  0.5010292230859348  0.3414791135804617  0.8118601617019741
  0.2507151878764518  0.6482972072285770  0.8120535583636175
  0.7522773364734904  0.3460928654872287  0.5655298118537366
  0.5017680073019688  0.6557158297586094  0.5666800015233703
  1.0017096282283968  0.3516969226392413  0.8127236672935712
  0.7505244364304506  0.6615700128929872  0.8134940553254411
  0.4947705336141679  0.0868802622022469  0.0422012664297082
  0.2492632196984635  0.9201051767563644  0.0582711920315164
  0.2671397083303318  0.0770736268980059  0.2957194517282419
 -0.0153965898035632  0.9226193387155928  0.2960767052024893
  1.0018299649467799  0.0804703750773948  0.0580127850813204
  0.7551367370397466  0.9207492585174729  0.0432331487068141
  0.7552911483852157  0.0897210952923372  0.3320297368819626
  0.4974919958818413  0.9134644244698786  0.3326986861063652
  0.4958226101777767  0.0855505858989963  0.5421853194330203
  0.2618443148763295  0.9150281422545967  0.5883898307552260
  0.2366504432446367  0.0839485560937300  0.8130523651946282
  0.0149238926523919  0.9141956949239245  0.8128026405894143
  0.9920117031791940  0.0843272239443996  0.5867987792056788
  0.7552350281466458  0.9194637435210554  0.5421802085487646
  0.7557932311038211  0.0885443477222597  0.8281252355109313
  0.4959401895432474  0.9156272050840577  0.8303742166309495
