Li8 Mg4 Bi16 S16 O16                    
   1.00000000000000     
    11.2053408515454045    0.0369798827860987    0.0100648789465669
     0.0245258736602267    9.6025420559336059   -0.1022308574910103
     0.0134563796113119   -0.1204070397998899   11.2354722813009413
   Li   Mg   Bi   S    O 
     8     4    16    16    16
Direct
  0.1455905086661795  0.9592105840725377  0.2304043917909706
  0.8941550688467320  0.0141829480943418  0.4105106546643133
  0.6178979409596080 -0.0013220630031561  0.1709584831415640
  0.8737388278181673 -0.0024490160879191  0.1747617519159635
  0.3500377912363672  0.0213225782281195  0.1288848751531624
  0.3347859568181671 -0.0274523965155536  0.7405278444402211
  0.5902874153982334  0.0100248134772806  0.9318772433893640
  0.0977348230325505 -0.0237251328210061  0.5905616311447165
  0.6260102140878917  0.0064502382982091  0.4255240626196225
  0.1178913489521628 -0.0054946918507153  0.9463347394323612
  0.8557232504319400 -0.0022179057054243  0.9233465742250121
  0.6327994037639256  0.0019071240134867  0.6849504250255434
 -0.0056381469697433  0.3125481228752758  0.0582057693466043
  0.2427973073356987  0.6871956641867577  0.0634786257856553
  0.2513278981494510  0.2913476291691136  0.3095310080202773
  0.4983546355955170  0.7025321195505732  0.3070162683946630
  0.4963272365613660  0.3052767800653460  0.0636390668053344
  0.7458552727437654  0.6961593624585783  0.0598605450881548
  0.7501086413067803  0.3113039572962351  0.3142138869630186
 -0.0043097860070656  0.6978912283667250  0.3083661342464714
 -0.0004901806311373  0.3016654915981470  0.5539423860111350
  0.2490023732121745  0.6943663524572704  0.5637006109112409
  0.2426615310342389  0.2961629513922019  0.8149647283662678
  0.4985418855195987  0.6981071942651402  0.8059771801245859
  0.4972546624325462  0.3169605499570479  0.5610258629695841
  0.7484192257702538  0.6887192906924026  0.5558133421113695
  0.7428096699039992  0.3115761210867792  0.8116112872937237
 -0.0002430749598372  0.6816809436316151  0.8113291577594890
  0.2488505271035558  0.3532045209279102  0.0598944871686996
 -0.0054790192130020  0.6343273620756638  0.0619376588331593
  0.5015122027534124  0.3504489455319714  0.3095502699411237
  0.2443885468166335  0.7048938953489616  0.3152910865683599
  0.7485062594083859  0.3541188967902724  0.0567924199610551
  0.4973953066354805  0.6699654256289180  0.0624798219040169
 -0.0010116052928929  0.3435361196103151  0.3061564475890474
  0.7469852306254895  0.6443943761220010  0.3134821864235344
  0.2530001124749897  0.2928001572270229  0.5617366804447972
 -0.0044619339686663  0.7140674460748520  0.5642184911137152
  0.5010046975212044  0.3472656840136683  0.8102031807212309
  0.2457602001869965  0.6494614666657348  0.8184938005149347
  0.7532863571038433  0.3617886857607026  0.5590635357601150
  0.4978894837037705  0.6485834321892838  0.5642087852402736
 -0.0022791154789948  0.3422284837149958  0.8089666424150300
  0.7451145470692155  0.6552705363114759  0.8157608721175613
  0.5047448051558887  0.0905890728569924  0.0650831908606681
  0.2160620931014631  0.9032224623190765  0.0675214277944951
  0.2611481622703040  0.0901870067421316  0.2639180471039020
 -0.0187462409224157  0.9097522873949746  0.2837940186021506
  0.9762958280615156  0.0914574900972438  0.0336841594086466
  0.7519605974429179  0.9178616624176958  0.0532811008908620
  0.7501672389314632  0.0898640599459497  0.3156173032305208
  0.5379534973223425  0.9099433613685085  0.3002807289042500
  0.5483817393710629  0.1078205350948663  0.5605354964251982
  0.2505977244097260  0.8986086749371384  0.6061797294940681
  0.2309685179555298  0.0853245873303668  0.8388361326619881
 -0.0077979678274975  0.8941760969486322  0.8528666226820700
  0.9812301681443449  0.0944225408569740  0.5374621373251134
  0.7173464387227184  0.9041201932174204  0.5503157941437795
  0.7293289531545682  0.0868308005811414  0.8217339896998666
  0.5104649462471208  0.9155928946477039  0.7919352169154110
 
  0.00000000E+00  0.00000000E+00  0.00000000E+00
  0.00000000E+00  0.00000000E+00  0.00000000E+00
  0.00000000E+00  0.00000000E+00  0.00000000E+00
  0.00000000E+00  0.00000000E+00  0.00000000E+00
  0.00000000E+00  0.00000000E+00  0.00000000E+00
  0.00000000E+00  0.00000000E+00  0.00000000E+00
  0.00000000E+00  0.00000000E+00  0.00000000E+00
  0.00000000E+00  0.00000000E+00  0.00000000E+00
  0.00000000E+00  0.00000000E+00  0.00000000E+00
  0.00000000E+00  0.00000000E+00  0.00000000E+00
  0.00000000E+00  0.00000000E+00  0.00000000E+00
  0.00000000E+00  0.00000000E+00  0.00000000E+00
  0.00000000E+00  0.00000000E+00  0.00000000E+00
  0.00000000E+00  0.00000000E+00  0.00000000E+00
  0.00000000E+00  0.00000000E+00  0.00000000E+00
  0.00000000E+00  0.00000000E+00  0.00000000E+00
  0.00000000E+00  0.00000000E+00  0.00000000E+00
  0.00000000E+00  0.00000000E+00  0.00000000E+00
  0.00000000E+00  0.00000000E+00  0.00000000E+00
  0.00000000E+00  0.00000000E+00  0.00000000E+00
  0.00000000E+00  0.00000000E+00  0.00000000E+00
  0.00000000E+00  0.00000000E+00  0.00000000E+00
  0.00000000E+00  0.00000000E+00  0.00000000E+00
  0.00000000E+00  0.00000000E+00  0.00000000E+00
  0.00000000E+00  0.00000000E+00  0.00000000E+00
  0.00000000E+00  0.00000000E+00  0.00000000E+00
  0.00000000E+00  0.00000000E+00  0.00000000E+00
  0.00000000E+00  0.00000000E+00  0.00000000E+00
  0.00000000E+00  0.00000000E+00  0.00000000E+00
  0.00000000E+00  0.00000000E+00  0.00000000E+00
  0.00000000E+00  0.00000000E+00  0.00000000E+00
  0.00000000E+00  0.00000000E+00  0.00000000E+00
  0.00000000E+00  0.00000000E+00  0.00000000E+00
  0.00000000E+00  0.00000000E+00  0.00000000E+00
  0.00000000E+00  0.00000000E+00  0.00000000E+00
  0.00000000E+00  0.00000000E+00  0.00000000E+00
  0.00000000E+00  0.00000000E+00  0.00000000E+00
  0.00000000E+00  0.00000000E+00  0.00000000E+00
  0.00000000E+00  0.00000000E+00  0.00000000E+00
  0.00000000E+00  0.00000000E+00  0.00000000E+00
  0.00000000E+00  0.00000000E+00  0.00000000E+00
  0.00000000E+00  0.00000000E+00  0.00000000E+00
  0.00000000E+00  0.00000000E+00  0.00000000E+00
  0.00000000E+00  0.00000000E+00  0.00000000E+00
  0.00000000E+00  0.00000000E+00  0.00000000E+00
  0.00000000E+00  0.00000000E+00  0.00000000E+00
  0.00000000E+00  0.00000000E+00  0.00000000E+00
  0.00000000E+00  0.00000000E+00  0.00000000E+00
  0.00000000E+00  0.00000000E+00  0.00000000E+00
  0.00000000E+00  0.00000000E+00  0.00000000E+00
  0.00000000E+00  0.00000000E+00  0.00000000E+00
  0.00000000E+00  0.00000000E+00  0.00000000E+00
  0.00000000E+00  0.00000000E+00  0.00000000E+00
  0.00000000E+00  0.00000000E+00  0.00000000E+00
  0.00000000E+00  0.00000000E+00  0.00000000E+00
  0.00000000E+00  0.00000000E+00  0.00000000E+00
  0.00000000E+00  0.00000000E+00  0.00000000E+00
  0.00000000E+00  0.00000000E+00  0.00000000E+00
  0.00000000E+00  0.00000000E+00  0.00000000E+00
  0.00000000E+00  0.00000000E+00  0.00000000E+00
