Li Mg Bi  S  O 
 1.0000000000000000
    11.1784999999999997    0.0000000000000000    0.0000000000000000
     0.0000000000000000    9.5746000000000002    0.0000000000000000
     0.0000000000000000    0.0000000000000000   11.1823999999999995
 Li  Mg  Bi  S   O  
  10   3  16  16  16
Direct
  0.3426629115981692 -0.0114758744177288  0.4196714771809230
  0.6231156215821030  0.9990733192922132  0.4418342617706284
  0.9175399679197982 -0.0065252257364783  0.4411004935852135
  0.8672801043047375 -0.0014124347724837  0.1850258758314122
  0.3394292753400363  0.0134101709127782  0.9700144257643131
  0.3826260212905743  0.0009914252492024  0.6872761613482219
  0.6258678867622791  1.0005829295090847  0.9313679122231111
  0.9098745986872747  0.0109194991899920  0.9243624448623157
  0.6247218086845908  0.9999803197696391  0.6858327688114422
  0.8706034699162066  0.0005313130085733  0.6838099988927600
  0.1234333262010347  0.9976117895248100  0.1870084128146286
  0.6106718905260045  0.9985966652263856  0.1871644441886492
  0.1289490582259133  1.0007721674968599  0.6849879333987682
 -0.0014232439191749  0.3022233738230918  0.0643054423088631
  0.2469990822971518  0.6954565123580730  0.0636316207823701
  0.2464112022402360  0.2957223519234168  0.3131017286731492
  0.4994943772085708  0.6946363268729310  0.3144470735076827
  0.4995160433967362  0.3025853687103633  0.0596382947642943
  0.7452388560694233  0.6938917547032084  0.0639745255409166
  0.7455035704821734  0.3042026080768279  0.3104109588515814
  0.9971784233843879  0.6936914894272381  0.3081008651922316
 -0.0012579200717065  0.3036628164983780  0.5638584027814341
  0.2517762593079464  0.6948726153389092  0.5644978668288599
  0.2511539563384333  0.3054004756408847  0.8091199027478917
  0.5012707750295423  0.7060934806966803  0.8100682376744904
  0.5005420359141917  0.2959295631120990  0.5632755446083590
  0.7496557422428621  0.7065512999111251  0.5619624419045859
  0.7499239232736777  0.2956145738038422  0.8117039972690685
  0.9987106033290666  0.6989824574981943  0.8089406034050380
  0.2502229842007782  0.3226918278185914  0.0630777920221649
 -0.0012678292982738  0.6496444389961537  0.0632252565289404
  0.4998774812532293  0.3386663925857257  0.3121574148690045
  0.2470505508134751  0.6671891853326212  0.3148494718964663
  0.7491061801437899  0.3499771704315935  0.0619035797482051
  0.4959747905969496  0.6609884248510955  0.0638852452840643
  0.9984813927694449  0.3423079383827118  0.3134338844686597
  0.7480079136102395  0.6477868404387779  0.3113057757037343
  0.2484381041590346  0.3456726476154776  0.5625137305324208
 -0.0022145164234745  0.6591205242638124  0.5605540359416665
  0.4991834990592881  0.3487291758628221  0.8131798797130374
  0.2466206856552891  0.6560538285908727  0.8104218123758601
  0.7513363181648175  0.3429458185057077  0.5631277138714241
  0.4999828907805826  0.6521015863567857  0.5621078614710786
  1.0004278907682789  0.3395660754764872  0.8147209038795984
  0.7503221864597313  0.6569604982256908  0.8134523457034998
  0.5140061608497221  0.0849391893758686  0.0550672732434747
  0.2347610251893426  0.9087302135437656  0.0698391998603118
  0.2351758268722582  0.0822763543287722  0.3079194636879837
 -0.0101971971028964  0.9123406333914010  0.2921089386467264
  0.9914776054856356  0.0843404083115056  0.0784754515981758
  0.7343034497239551  0.9134253911919503  0.0750672588954814
  0.7350983077445152  0.0853325095588462  0.2971019087172178
  0.5168471095427003  0.9110455776942028  0.3201718531112154
  0.5052056293372366  0.0802391907378307  0.5658079605327618
  0.2567392487184629  0.9123996537719110  0.5795564110155437
  0.2545006389246406  0.0889347072134645  0.7916698573018962
 -0.0032477480692364  0.9165514322250502  0.7890349466772083
  0.9990191197318211  0.0856610567099436  0.5788872062425148
  0.7522387862893647  0.9236101594331627  0.5609210133447834
  0.7553213126301608  0.0782173111288449  0.8138035051417244
  0.5098761320591229  0.9208572834405334  0.8044390624754081
