Li Mg Bi  S  O 
 1.0000000000000000
    11.1784999999999997    0.0000000000000000    0.0000000000000000
     0.0000000000000000    9.5746000000000002    0.0000000000000000
     0.0000000000000000    0.0000000000000000   11.1823999999999995
 Li  Mg  Bi  S   O  
   8   4  16  16  16
Direct
  0.3727342492210114 -0.0104011288588986  0.4281660697884516
  0.3821975371819347 -0.0076162882628851  0.1768466897702992
  0.6484716499468565  0.9748266777791680  0.2619785516652082
  0.8604993958025197  0.0144738544884028  0.1760875071569326
  0.3430926939049594  0.0103698921894276  0.9353434618702542
  0.3861059291681989 -0.0006081378693377  0.6807742099587296
  0.6091253076015275  1.0019583049869263  0.9467143493650028
  0.8825725987804688  0.0123494432909518  0.8003536850268214
  0.1237113591912814  0.9902586236992456  0.1985982846352990
  0.8903723081837074 -0.0021296042009642  0.4445433761724959
  0.1347602816662094  1.0091479987191321  0.6631294127276975
  0.6359708049691905  1.0022022275996447  0.6712655052179340
  0.0037155531618690  0.3044551168788800  0.0655642580624871
  0.2497981729756492  0.6915732761734634  0.0600586438550221
  0.2569869855618473  0.2926827014539204  0.3043165572810754
  0.4954912687843659  0.6944198409155371  0.3087590849713443
  0.4965521777719107  0.2944886779891086  0.0528034565750621
  0.7430599801537563  0.7134999505764157  0.0685905768013065
  0.7581980058015004  0.3056427441488830  0.3092839176735596
  0.9998941404622178  0.6825281243863626  0.3095938570463722
  0.0071510047222328  0.3153017718138116  0.5546555131368585
  0.2551065531177073  0.6958004979866096  0.5608135871959643
  0.2550273589454438  0.3053997690363214  0.8056542746168672
  0.5039931182201399  0.6929749226793906  0.8050024237057442
  0.5064040384159973  0.3022910742460704  0.5571023745889743
  0.7522315899868470  0.6937540176333233  0.5615440777822787
  0.7512748527372355  0.3104860495257082  0.8141204743422954
  1.0054345167283636  0.6996313490398856  0.8050127953093290
  0.2471240841122272  0.3461040386999573  0.0565797516968661
 -0.0000026766033732  0.6632494289647159  0.0610502488451737
  0.5056461485341134  0.3243241355260019  0.3092013446296896
  0.2500740966892067  0.6510600923168511  0.3140383934909281
  0.7517061345120283  0.3390170268585970  0.0610714450564049
  0.4967748517837839  0.6508942316408926  0.0610924097456918
  1.0008821639530563  0.3608412771617026  0.3123180592032486
  0.7495751998166218  0.6546647748084483  0.3150146291890303
  0.2535209484034785  0.3459345941638568  0.5551085587731873
 -0.0001767541675087  0.6467075119645460  0.5610438826808465
  0.5002099869982723  0.3599366486177327  0.8091483968025890
  0.2490762998225003  0.6505591246390879  0.8045242770175624
  0.7583058717132121  0.3415750494316342  0.5664030102813493
  0.5033435691798457  0.6508987604088536  0.5592634131166193
  0.9883979128795292  0.2571224348991301  0.8134008760429197
  0.7543724250417752  0.6649075472802810  0.8108838676947870
  0.4714842718811050  0.0830225739406726  0.0350522935194140
  0.2486160609421486  0.9077339038495000  0.0801224002629922
  0.2588104337860637  0.0758713184700793  0.2926138766764388
 -0.0089396055563228  0.9046857413637757  0.3087814845711118
  1.0038552032219359  0.0977091581619553  0.1099249905272521
  0.7244853465795152  0.9240844232493651  0.0925862236992178
  0.7806231942899640  0.0896894030100057  0.3228174131354501
  0.4889469268136321  0.9093453996774901  0.3035294854554945
  0.5036030058331210  0.0864357706608725  0.5745157702761104
  0.2660790789570008  0.9137812004094255  0.5695217560063703
  0.2642440375559870  0.0896208601840422  0.7836351617982001
  0.0177373140138233  0.9067588120468587  0.7661221667892032
  1.0156040349580187  0.0962276623689769  0.5427268274262326
  0.7638380895033969  0.9144747649758205  0.5621992012275978
  0.7250070456496528  0.0933510167167840  0.8072409912722209
  0.5175800701103096  0.9102731890784980  0.7885390540927054
