Li8 Mg4 Bi16 S16 O16                    
   1.00000000000000     
    11.2421614470762101    0.0467390294963718   -0.0310971901797151
     0.0400201851471361    9.5671061433012667    0.0190235983154792
    -0.0312049732143225    0.0227437803420323   11.1846180338395200
   Li   Mg   Bi   S    O 
     8     4    16    16    16
Direct
  0.3711337793246641  0.0049189329605803  0.4342215392429489
  0.3808111935827765  0.0008889215153473  0.1944043805329148
  0.6172143544518085  0.0044933514922557  0.4477575490228043
  0.6306766170060507 -0.0033626685153047  0.1966746014157883
  0.8827429975654493 -0.0094754912531846  0.1759613446830645
  0.0968934926372851  0.9730606935299817  0.9755698400220807
  0.6308245842316957 -0.0018675668448216  0.9258395480469322
  0.8636871868152985  0.0000443773209109  0.9439685675023880
  0.8703725511358600  0.0017888050651575  0.4336714995579806
  0.3769397172513521  0.0011147899106987  0.9413604193788920
  0.3984135523243423  0.0056994944691257  0.6836047402384916
  0.8613890574917190 -0.0047252939247151  0.6976030569976178
 -0.0047703744889500  0.2927565105926673  0.0628538734011820
  0.2510569138811759  0.6922134399361903  0.0609803035645559
  0.2526401921956863  0.2974847199641151  0.3093980820812688
  0.5005772752145187  0.7003815406464148  0.3128349254368780
  0.4961118323350396  0.3061425525300503  0.0616912662765075
  0.7500814388117397  0.6996881002576739  0.0641763977412352
  0.7484299113636232  0.3096812722010071  0.3146960195051078
 -0.0017882564825103  0.6953340195381057  0.3122085176527670
 -0.0045768075448937  0.3044401436927149  0.5636483121098416
  0.2570511464956970  0.7044787790539020  0.5603182583359986
  0.2567703238755628  0.3155862058715918  0.8065187963447024
  0.4987862278805626  0.6872544967554843  0.8128916853017949
  0.4981907489863608  0.3123408921037255  0.5563069919021670
  0.7535526530188815  0.6862371495873841  0.5606155424822902
  0.7526605661969271  0.3063570468356753  0.8152672001902023
 -0.0045101657259232  0.6910519193212760  0.8124923153353589
  0.2535023861305942  0.3414919708148818  0.0570970918288038
  0.0012107369663152  0.6594000251018010  0.0606034345390835
  0.5013403040974416  0.3594494592526902  0.3100324582123703
  0.2531244953265054  0.6781245239935142  0.3085190164949677
  0.7518925565398059  0.3476244691555032  0.0610781622166458
  0.5012371383555454  0.6524616179354756  0.0601403976226790
  0.9961910975354487  0.3231991210564610  0.3135618282156804
  0.7507983238517617  0.6418808343677141  0.3099278897266615
  0.2555619604030228  0.3486030094238540  0.5598258850506906
 -0.0020932274810517  0.6552259650029573  0.5614578883893688
  0.5032063233228011  0.3574415562607888  0.8125639564448407
  0.2538239151876728  0.6523361784170574  0.8092197277386385
  0.7534713355407260  0.3585497997775950  0.5618297909631983
  0.5016695193500124  0.6509919978215042  0.5612656273040780
  0.9997257377262185  0.3412584191289889  0.8125401811701589
  0.7512369029627753  0.6523835653401630  0.8108735144553481
  0.4942015141459575  0.0833324632231598  0.0568617036265103
  0.2563420320236516  0.9096604741390952  0.0388659641367844
  0.2894689811931827  0.0931538855241965  0.3073670859007673
 -0.0435496847427322  0.9029779537385256  0.3101095352181357
  0.9774962652883799  0.0800154237769705  0.0524051459917753
  0.7434199620338929  0.9183336353153545  0.0656262696510294
  0.7422070962441296  0.0877954758184989  0.3274065003642029
  0.5112452570217960  0.9176689608270813  0.3107317186236621
  0.4940847167720089  0.0938444541952820  0.5532292990299945
  0.2975050078046679  0.9105206929871247  0.5681343003493577
  0.3002011618144933  0.1024445729973030  0.8080429614869803
 -0.0318028806019165  0.9062091327417929  0.8233516160092568
  0.9499067440735300  0.0946666579696257  0.5697525478594826
  0.7665749279343984  0.9080896851706279  0.5573360644380877
  0.7581753892695654  0.0867472435646401  0.8219458186948188
  0.4880412940776060  0.9108296405457332  0.8233610439422057
 
  0.00000000E+00  0.00000000E+00  0.00000000E+00
  0.00000000E+00  0.00000000E+00  0.00000000E+00
  0.00000000E+00  0.00000000E+00  0.00000000E+00
  0.00000000E+00  0.00000000E+00  0.00000000E+00
  0.00000000E+00  0.00000000E+00  0.00000000E+00
  0.00000000E+00  0.00000000E+00  0.00000000E+00
  0.00000000E+00  0.00000000E+00  0.00000000E+00
  0.00000000E+00  0.00000000E+00  0.00000000E+00
  0.00000000E+00  0.00000000E+00  0.00000000E+00
  0.00000000E+00  0.00000000E+00  0.00000000E+00
  0.00000000E+00  0.00000000E+00  0.00000000E+00
  0.00000000E+00  0.00000000E+00  0.00000000E+00
  0.00000000E+00  0.00000000E+00  0.00000000E+00
  0.00000000E+00  0.00000000E+00  0.00000000E+00
  0.00000000E+00  0.00000000E+00  0.00000000E+00
  0.00000000E+00  0.00000000E+00  0.00000000E+00
  0.00000000E+00  0.00000000E+00  0.00000000E+00
  0.00000000E+00  0.00000000E+00  0.00000000E+00
  0.00000000E+00  0.00000000E+00  0.00000000E+00
  0.00000000E+00  0.00000000E+00  0.00000000E+00
  0.00000000E+00  0.00000000E+00  0.00000000E+00
  0.00000000E+00  0.00000000E+00  0.00000000E+00
  0.00000000E+00  0.00000000E+00  0.00000000E+00
  0.00000000E+00  0.00000000E+00  0.00000000E+00
  0.00000000E+00  0.00000000E+00  0.00000000E+00
  0.00000000E+00  0.00000000E+00  0.00000000E+00
  0.00000000E+00  0.00000000E+00  0.00000000E+00
  0.00000000E+00  0.00000000E+00  0.00000000E+00
  0.00000000E+00  0.00000000E+00  0.00000000E+00
  0.00000000E+00  0.00000000E+00  0.00000000E+00
  0.00000000E+00  0.00000000E+00  0.00000000E+00
  0.00000000E+00  0.00000000E+00  0.00000000E+00
  0.00000000E+00  0.00000000E+00  0.00000000E+00
  0.00000000E+00  0.00000000E+00  0.00000000E+00
  0.00000000E+00  0.00000000E+00  0.00000000E+00
  0.00000000E+00  0.00000000E+00  0.00000000E+00
  0.00000000E+00  0.00000000E+00  0.00000000E+00
  0.00000000E+00  0.00000000E+00  0.00000000E+00
  0.00000000E+00  0.00000000E+00  0.00000000E+00
  0.00000000E+00  0.00000000E+00  0.00000000E+00
  0.00000000E+00  0.00000000E+00  0.00000000E+00
  0.00000000E+00  0.00000000E+00  0.00000000E+00
  0.00000000E+00  0.00000000E+00  0.00000000E+00
  0.00000000E+00  0.00000000E+00  0.00000000E+00
  0.00000000E+00  0.00000000E+00  0.00000000E+00
  0.00000000E+00  0.00000000E+00  0.00000000E+00
  0.00000000E+00  0.00000000E+00  0.00000000E+00
  0.00000000E+00  0.00000000E+00  0.00000000E+00
  0.00000000E+00  0.00000000E+00  0.00000000E+00
  0.00000000E+00  0.00000000E+00  0.00000000E+00
  0.00000000E+00  0.00000000E+00  0.00000000E+00
  0.00000000E+00  0.00000000E+00  0.00000000E+00
  0.00000000E+00  0.00000000E+00  0.00000000E+00
  0.00000000E+00  0.00000000E+00  0.00000000E+00
  0.00000000E+00  0.00000000E+00  0.00000000E+00
  0.00000000E+00  0.00000000E+00  0.00000000E+00
  0.00000000E+00  0.00000000E+00  0.00000000E+00
  0.00000000E+00  0.00000000E+00  0.00000000E+00
  0.00000000E+00  0.00000000E+00  0.00000000E+00
  0.00000000E+00  0.00000000E+00  0.00000000E+00
