Li4 Mg6 Bi16 S16 O16                    
   1.00000000000000     
    11.2591434049733596    0.0017810775762171   -0.0768966538950600
     0.0019743897365714    9.6337022522102345   -0.0173421337398085
    -0.0766167866713261   -0.0188921458885086   11.1797054621190455
   Li   Mg   Bi   S    O 
     4     6    16    16    16
Direct
  0.3562623998142274  0.0200074065529287  0.4774535128552196
  0.6113391696878082  0.0303111863255230  0.2479729452485783
  0.1713254325658998  0.9628362735328438  0.9093695234413717
  0.1293605910028996  0.0141627098317880  0.6423108937428492
  0.3750589971806668 -0.0009749842741851  0.1737599016295600
  0.8626955471748176  0.0036079861484317  0.4516754319975788
  0.8681467840391325  0.0047049742875581  0.1819423523772840
  0.6180691599041199  0.0016131404773975  0.9557352224004565
  0.8782989299739957  0.0058563612776469  0.9162463234229786
  0.6307144253277174 -0.0004874488037544  0.6790906332369272
 -0.0007250964943808  0.3146231929567383  0.0621029934559539
  0.2545526454911792  0.6926724585536280  0.0625811940188396
  0.2588514017066090  0.2962086746084598  0.3126641969110267
  0.4962900350322638  0.6902667799270897  0.3081681926910048
  0.4976281177262206  0.3136053452045708  0.0657890010510005
  0.7530063736391230  0.6841817678386122  0.0600982345934923
  0.7550816839550877  0.3214901939269260  0.3147541143768628
 -0.0033982493951276  0.6966236289629274  0.3179738881725867
  0.0005841691734066  0.3052047619449959  0.5604695136177882
  0.2489063871313702  0.7046958510903720  0.5600992378033526
  0.2436740485713620  0.2858659053015852  0.8061142708554685
  0.5003294877792300  0.6933653412405488  0.8086200738330022
  0.4998196019317313  0.3030534756960372  0.5660761187461681
  0.7491335217304342  0.6940686992141945  0.5621609712255465
  0.7467727551735027  0.3192070096199630  0.8147440645982517
  0.0039138539156675  0.6875738147335761  0.8167141164868552
  0.2527782648131560  0.3066319012746116  0.0620005992362634
 -0.0053553021009276  0.6478334832950987  0.0677556488576119
  0.5036890006049746  0.3533668546519941  0.3107489712536621
  0.2528677312129989  0.6527188401446619  0.3103882084524975
  0.7495473289149385  0.3658730978452453  0.0628216343022220
  0.4993055382122659  0.6410509667628163  0.0607141423690068
  0.9974308746258199  0.3500709236485932  0.3137956577613252
  0.7514816370126997  0.6449762376255721  0.3137278247991772
  0.2521770714835026  0.3399070809833176  0.5601999849248958
 -0.0044589733704958  0.6616477701691267  0.5642028835935162
  0.5031669598146854  0.3435953150970783  0.8135240423237289
  0.2469591089537582  0.6620520465369559  0.8143516318722135
  0.7511667935356845  0.3429292448809068  0.5632316453821865
  0.5014697352635770  0.6672791605273078  0.5652261411206236
  0.9962993323461142  0.3447245392010360  0.8170409883981556
  0.7481135546942698  0.6387061164704760  0.8146723945835879
  0.5205409990274751  0.0913569268388094  0.0835014500376201
  0.2675077336481805  0.9048783597716583  0.0567030376386318
  0.3039934731872690  0.0916803490594790  0.3150099506503609
 -0.0566266588173546  0.9038782143671968  0.3154020476548647
  0.9515664965145180  0.1042258960630411  0.0555171607210618
  0.7630357236873556  0.9149636205198830  0.0451326599280639
  0.7658874647130669  0.0969302619683301  0.3068656582930377
  0.4946631836758399  0.8990383121010765  0.2750112963251102
  0.5093573181443107  0.0912715130355782  0.5744476233780724
  0.2427380570950081  0.9116241612171746  0.5544870370073044
  0.2094439889468680  0.0838888093813438  0.7870211210692150
  0.0053703238483733  0.8990833789401310  0.8454475851270804
  0.9873271934532742  0.0938195482647837  0.5518620699197681
  0.7487280279899272  0.9125446632639568  0.5660618941674406
  0.7329765402108442  0.0911850003629737  0.8312460066773933
  0.5511593049190604  0.9019728995533597  0.8160540793843267
 
  0.00000000E+00  0.00000000E+00  0.00000000E+00
  0.00000000E+00  0.00000000E+00  0.00000000E+00
  0.00000000E+00  0.00000000E+00  0.00000000E+00
  0.00000000E+00  0.00000000E+00  0.00000000E+00
  0.00000000E+00  0.00000000E+00  0.00000000E+00
  0.00000000E+00  0.00000000E+00  0.00000000E+00
  0.00000000E+00  0.00000000E+00  0.00000000E+00
  0.00000000E+00  0.00000000E+00  0.00000000E+00
  0.00000000E+00  0.00000000E+00  0.00000000E+00
  0.00000000E+00  0.00000000E+00  0.00000000E+00
  0.00000000E+00  0.00000000E+00  0.00000000E+00
  0.00000000E+00  0.00000000E+00  0.00000000E+00
  0.00000000E+00  0.00000000E+00  0.00000000E+00
  0.00000000E+00  0.00000000E+00  0.00000000E+00
  0.00000000E+00  0.00000000E+00  0.00000000E+00
  0.00000000E+00  0.00000000E+00  0.00000000E+00
  0.00000000E+00  0.00000000E+00  0.00000000E+00
  0.00000000E+00  0.00000000E+00  0.00000000E+00
  0.00000000E+00  0.00000000E+00  0.00000000E+00
  0.00000000E+00  0.00000000E+00  0.00000000E+00
  0.00000000E+00  0.00000000E+00  0.00000000E+00
  0.00000000E+00  0.00000000E+00  0.00000000E+00
  0.00000000E+00  0.00000000E+00  0.00000000E+00
  0.00000000E+00  0.00000000E+00  0.00000000E+00
  0.00000000E+00  0.00000000E+00  0.00000000E+00
  0.00000000E+00  0.00000000E+00  0.00000000E+00
  0.00000000E+00  0.00000000E+00  0.00000000E+00
  0.00000000E+00  0.00000000E+00  0.00000000E+00
  0.00000000E+00  0.00000000E+00  0.00000000E+00
  0.00000000E+00  0.00000000E+00  0.00000000E+00
  0.00000000E+00  0.00000000E+00  0.00000000E+00
  0.00000000E+00  0.00000000E+00  0.00000000E+00
  0.00000000E+00  0.00000000E+00  0.00000000E+00
  0.00000000E+00  0.00000000E+00  0.00000000E+00
  0.00000000E+00  0.00000000E+00  0.00000000E+00
  0.00000000E+00  0.00000000E+00  0.00000000E+00
  0.00000000E+00  0.00000000E+00  0.00000000E+00
  0.00000000E+00  0.00000000E+00  0.00000000E+00
  0.00000000E+00  0.00000000E+00  0.00000000E+00
  0.00000000E+00  0.00000000E+00  0.00000000E+00
  0.00000000E+00  0.00000000E+00  0.00000000E+00
  0.00000000E+00  0.00000000E+00  0.00000000E+00
  0.00000000E+00  0.00000000E+00  0.00000000E+00
  0.00000000E+00  0.00000000E+00  0.00000000E+00
  0.00000000E+00  0.00000000E+00  0.00000000E+00
  0.00000000E+00  0.00000000E+00  0.00000000E+00
  0.00000000E+00  0.00000000E+00  0.00000000E+00
  0.00000000E+00  0.00000000E+00  0.00000000E+00
  0.00000000E+00  0.00000000E+00  0.00000000E+00
  0.00000000E+00  0.00000000E+00  0.00000000E+00
  0.00000000E+00  0.00000000E+00  0.00000000E+00
  0.00000000E+00  0.00000000E+00  0.00000000E+00
  0.00000000E+00  0.00000000E+00  0.00000000E+00
  0.00000000E+00  0.00000000E+00  0.00000000E+00
  0.00000000E+00  0.00000000E+00  0.00000000E+00
  0.00000000E+00  0.00000000E+00  0.00000000E+00
  0.00000000E+00  0.00000000E+00  0.00000000E+00
  0.00000000E+00  0.00000000E+00  0.00000000E+00
