Li Mg Bi  S  O 
 1.0000000000000000
    11.1784999999999997    0.0000000000000000    0.0000000000000000
     0.0000000000000000    9.5746000000000002    0.0000000000000000
     0.0000000000000000    0.0000000000000000   11.1823999999999995
 Li  Mg  Bi  S   O  
   4   6  16  16  16
Direct
  0.3782592340873583  0.0037246968150461  0.3213473457004813
  0.1282764352283197  0.9918211923273897  0.7036541569259173
  0.3760548490119480  0.0074734040926215  0.6910421749595527
  0.8805186157400045 -0.0037607104659664  0.6850811194061399
  0.1152601367079803  0.9962781080000028  0.1796523035798163
  0.8725117442792601 -0.0070505836491606  0.4232094662997741
  0.6412298314020064  1.0019890531054503  0.1732501826774437
  0.3834068457573879 -0.0024208117717843  0.9557708486873281
  0.8781267383903214 -0.0016045274492463  0.9460484339462292
  0.6323730398270181  0.9943059511671067  0.7054028171871451
  0.0089833663365588  0.3043226414491544  0.0595354773448160
  0.2490414908238722  0.6931343965294382  0.0644287047877006
  0.2482508912316266  0.3059984679701062  0.3147774784295423
  0.5040630439763705  0.7014660146119391  0.3065001457849470
  0.5026794333810605  0.3084938067252855  0.0673567592083202
  0.7531317389273197  0.6889699953669242  0.0653399806077758
  0.7518479730640995  0.3006909487173755  0.3140969287264703
  1.0049768808219666  0.6897029581898474  0.3163412397163875
  0.0011198230385178  0.2955050603823577  0.5610573116983243
  0.2505459737302541  0.7116636641990084  0.5725142420061001
  0.2615751115388115  0.3048273625871396  0.8138931625388820
  0.4995692080417715  0.6873172640842601  0.8159420657551885
  0.5042421778211255  0.3027581619998874  0.5703214278248966
  0.7480330863763381  0.6873577317542504  0.5646984178620805
  0.7568158912504414  0.3062078586020813  0.8128732579743603
  0.9998688469481365  0.6957480428876748  0.8127448445727364
  0.2577835838210241  0.3549537390770074  0.0725614549407500
 -0.0006506007362525  0.6555433235359822  0.0668334800305956
  0.5103300483083486  0.3296211307205070  0.3149807652128406
  0.2552688965691834  0.6827448647267880  0.3138529957614584
  0.7528835778311689  0.3390147160324704  0.0576682751417919
  0.5062388414779553  0.6513390699714837  0.0633048454357636
  0.9957695582012417  0.3436529560428295  0.3137251758481161
  0.7460192013540211  0.6546151170269586  0.3180095782379781
  0.2548721099065043  0.3227249419159814  0.5598587125622924
  0.0035495905520186  0.6531349845143317  0.5606700006887176
  0.5018002932700533  0.3598302183687960  0.8152046148757740
  0.2507236260792806  0.6514745653431657  0.8203952263617359
  0.7556152889611391  0.3506932812313593  0.5685077305499127
  0.5017181034968313  0.6652552217364331  0.5692126892179720
  1.0100384347463196  0.3365085814109361  0.8155672989910238
  0.7580313912830798  0.6463314200422096  0.8152860942103480
  0.5100757484654337  0.0895765140176225  0.0608148361894566
  0.2500576495914649  0.9123123158322005  0.0644806817941807
  0.2348559702637552  0.0955641327603592  0.2825094345304666
 -0.0053663391677980  0.9076415025703001  0.3049871116097843
  0.9998896753024993  0.0856661883603920  0.0601756683038567
  0.7557779392456335  0.9086446381215685  0.0563109906710199
  0.7558555929389666  0.0819041334982999  0.3060695861595016
  0.5188720524244876  0.9132007374743917  0.2791713679016194
  0.5149672017467329  0.0944326937643734  0.6072930193722295
  0.2483480720398415  0.9175812855643027  0.6054110400120062
  0.2862682780439246  0.0915791110007239  0.8273048714587680
 -0.0174188889270011  0.9133182382582353  0.8112958968240901
  0.9690898404900485  0.0826095789245870  0.5561114883436372
  0.7597628491503209  0.9080076732293159  0.5789906381516851
  0.7662085276256496  0.0829731579942638  0.8070094850474193
  0.4967011367311185  0.9094770388608127  0.8154526147141947
