Li Mg Bi  S  O 
 1.0000000000000000
    11.1784999999999997    0.0000000000000000    0.0000000000000000
     0.0000000000000000    9.5746000000000002    0.0000000000000000
     0.0000000000000000    0.0000000000000000   11.1823999999999995
 Li  Mg  Bi  S   O  
  10   3  16  16  16
Direct
  0.3769036957169592 -0.0013373316304874  0.2019089828782347
  0.9086986967056153  0.0022246831666893  0.4355027620551624
  0.6237898143919993  0.9972419143145999  0.1786995975477577
  0.8670601064716947 -0.0000983230288119  0.1857764828380427
  0.3474277038941881  0.0014547762134417  0.9375949534811537
  0.3796651633219558 -0.0008519945009268  0.6804539314541576
  0.6214457725777823  0.9996811772409061  0.9383487601955631
  0.8936789451906636  0.0004778342708794  0.9342929717561391
  0.6225933051332696  1.0024665892049056  0.6967533327094126
  0.8664249957964066 -0.0024587534946186  0.6835359673827380
  0.1218071079723852  0.9972008050636971  0.1766537041919775
  0.6247291789870519  0.9998379853300413  0.4376791501631427
  0.1221866529510857  1.0038922029712407  0.6951664060113414
 -0.0010887448122037  0.3020480392737907  0.0617006658947201
  0.2539294286643399  0.6938181943112429  0.0638418523653159
  0.2475983169705036  0.3042023433748384  0.3073623800119335
  0.5038720654987845  0.6965858553922443  0.3114129210987228
  0.4980281135640260  0.2937452676242036  0.0612175022845338
  0.7493659182270037  0.7049027108641660  0.0604513859979028
  0.7497425925809666  0.3052200655855118  0.3117653914330367
  1.0008673735818290  0.6978689988638117  0.3087603393166811
  0.0006097096170347  0.3031440985214630  0.5646749502282864
  0.2493880586864598  0.6997605727352706  0.5674475298814308
  0.2523049637363922  0.3070313635927817  0.8099291388171048
  0.4997676320685838  0.7056583992356721  0.8126966122779362
  0.5024382499871759  0.3013333206469702  0.5622307140913253
  0.7500598473457725  0.6953955974391921  0.5610653231728479
  0.7483570878104365  0.2945695817720680  0.8134713857849161
  0.9984381700752955  0.6972165124670494  0.8102198367175217
  0.2496457278931710  0.3506511448744551  0.0595841644900762
 -0.0002249515681977  0.6621373291321412  0.0599517855606606
  0.5012615576963890  0.3387209191710003  0.3120612445507826
  0.2478900994615343  0.6659493790185014  0.3108169561644429
  0.7500076533617499  0.3436146889743403  0.0631586586146091
  0.4992961184780601  0.6526819051151511  0.0635104766655368
  0.9988287992340420  0.3408058233647140  0.3143116350399678
  0.7512207055910434  0.6487122636690733  0.3117818829112786
  0.2502229810101234  0.3364889656991523  0.5653811375084785
 -0.0015929926474087  0.6569577061835494  0.5596152449244348
  0.5010565019627602  0.3475026049898946  0.8124288887363835
  0.2486059109683926  0.6489966982381103  0.8122901618803928
  0.7515708341591235  0.3508594797563990  0.5615045509081130
  0.5028081958096380  0.6592550205244565  0.5604139215817600
  0.9980258855720754  0.3391831174681458  0.8140915488001553
  0.7499256472058946  0.6568749939060465  0.8120001660305239
  0.5001556886988590  0.0769755874574097  0.0620216699703749
  0.2560802263476057  0.9115872327514878  0.0761324710447490
  0.2427457495169647  0.0957741631343417  0.2723346950610043
 -0.0075663602962919  0.9156888057821085  0.2897696494374113
  0.9917475076838335  0.0841291450092738  0.0744991882299140
  0.7481849252075171  0.9226955270863517  0.0626623324218967
  0.7452869713073635  0.0839783118362054  0.3196033265165000
  0.5250742671519130  0.9136874480725180  0.3064118382666943
  0.5248169548269070  0.0849484599276989  0.5688039040677844
  0.2467130614862790  0.9079253623465114  0.6017616404049441
  0.2533331191988740  0.0893796518280330  0.7994655106047086
 -0.0089542210042770  0.9149639812871462  0.7951405475293137
  0.9936882606872203  0.0853822804119012  0.5815189252614245
  0.7451524722142382  0.9167715631164585  0.5558484913665442
  0.7484922728114053  0.0768876926925221  0.8115432134052273
  0.4996261126852776  0.9225815321386519  0.8117171261291755
