Li6 Mg5 Bi16 S16 O16                    
   1.00000000000000     
    11.1515077047381173   -0.0134039374691503   -0.0056341986191500
    -0.0106969168645523    9.5833260093475872   -0.0304046035964325
    -0.0057764596823974   -0.0348056952595971   11.2054841615883198
   Li   Mg   Bi   S    O 
     6     5    16    16    16
Direct
  0.0821908901736089  0.0270157140758128  0.2156439524099091
  0.6579064921618740  0.9986951743579531  0.1808272715401936
  0.1472562795720868  0.0000811137241168  0.9388765100095785
  0.3831932029326698 -0.0000177981267753  0.9406363711219509
  0.0804852391507265  0.9734650743331263  0.6536008484719956
  0.6304324173898507  0.9888866837946771  0.9181807788432881
  0.3796683225496971 -0.0068916994453250  0.1884872215295002
  0.5977900896959792 -0.0003235346132856  0.4398555289339768
  0.8679785688035466  0.0029203434926984  0.4301487099123959
  0.3816469383819022  0.0036537252326527  0.6911981869170449
  0.8872918248795817 -0.0045734004426202  0.9476569027408294
  0.0040080941584298  0.3061305501064122  0.0594940071337028
  0.2555684615462419  0.6919035211893872  0.0609673606021842
  0.2476069412923184  0.2980167245658669  0.3094796980216193
  0.4997235611257047  0.6887456214574194  0.3093545905353983
  0.5016072434768128  0.3032879201237031  0.0636670938586453
  0.7536837691356730  0.6915277537577932  0.0593341252062245
  0.7466624543647816  0.3138964811739163  0.3162093919410038
 -0.0022577357736095  0.7041377901756144  0.3126100954117922
 -0.0038349818441474  0.2971775389691070  0.5616726329247362
  0.2475530552710188  0.7025120827446143  0.5675437071294795
  0.2559851122674552  0.3088615553583925  0.8147915084291929
  0.5004433307460768  0.6958390499359307  0.8125090614545415
  0.4963076082394250  0.3080011920866856  0.5657519067695028
  0.7479809337691334  0.6931321474984606  0.5584488509016075
  0.7561321938044107  0.2968324273409358  0.8176969245731079
  0.0032145284281055  0.6942074518077181  0.8167843834644134
  0.2527509841634767  0.3604195303161444  0.0641936809159299
  0.0014944182558153  0.6555253279157669  0.0649452173260456
  0.4980794296765580  0.3490739039662840  0.3112049600161361
  0.2547326402566241  0.6878711160806464  0.3105850869740375
  0.7515079061533498  0.3489304962917555  0.0619388488281795
  0.5024838475025134  0.6446362087724916  0.0644825134746811
  0.9988068974258142  0.3238770086966233  0.3104540226632971
  0.7526863790598688  0.6375514062718284  0.3138158065800469
  0.2508467805959465  0.3317093921816350  0.5649034417601524
 -0.0007222737727427  0.6805611370004302  0.5649612106754613
  0.5027270890923107  0.3489541827480239  0.8110829835534937
  0.2545752748655917  0.6387073852664605  0.8130509475819611
  0.7499043058777639  0.3531425881565655  0.5593935326819763
  0.4992181323255001  0.6654500263811095  0.5635714774857793
  0.0012423348236562  0.3439955751485834  0.8114101452888608
  0.7535967809880529  0.6609098400448340  0.8154590493793431
  0.4974922185990108  0.0835472209244784  0.0718450566806122
  0.2776593705945827  0.9089989347310916  0.0538212297902636
  0.2469065572205003  0.0906405925996091  0.2680722180656455
 -0.0248194106407216  0.9153909989234393  0.3109129062440427
  0.0154884566428877  0.0888126552985225  0.0482496805018658
  0.7502383624908706  0.9095260092754975  0.0467724614169378
  0.7274532170130037  0.0936911060748297  0.3357335361325613
  0.5126464702740042  0.9120016588148420  0.2957718374704224
  0.4927589334805203  0.0883168646527829  0.5648114474228578
  0.2450032370180194  0.9090515196194968  0.6127112887637584
  0.2784827714850127  0.0924954136653501  0.8243578981267828
  0.0138129070831952  0.9098969790497375  0.8377881779694750
  0.9767258766529116  0.0852613111085582  0.5536102499554656
  0.7359773562015407  0.9015640162270340  0.5127949306866390
  0.7624114937211991  0.0890963541007753  0.8524040826713456
  0.4869964191740133  0.9131620350197627  0.8191924521281575
 
  0.00000000E+00  0.00000000E+00  0.00000000E+00
  0.00000000E+00  0.00000000E+00  0.00000000E+00
  0.00000000E+00  0.00000000E+00  0.00000000E+00
  0.00000000E+00  0.00000000E+00  0.00000000E+00
  0.00000000E+00  0.00000000E+00  0.00000000E+00
  0.00000000E+00  0.00000000E+00  0.00000000E+00
  0.00000000E+00  0.00000000E+00  0.00000000E+00
  0.00000000E+00  0.00000000E+00  0.00000000E+00
  0.00000000E+00  0.00000000E+00  0.00000000E+00
  0.00000000E+00  0.00000000E+00  0.00000000E+00
  0.00000000E+00  0.00000000E+00  0.00000000E+00
  0.00000000E+00  0.00000000E+00  0.00000000E+00
  0.00000000E+00  0.00000000E+00  0.00000000E+00
  0.00000000E+00  0.00000000E+00  0.00000000E+00
  0.00000000E+00  0.00000000E+00  0.00000000E+00
  0.00000000E+00  0.00000000E+00  0.00000000E+00
  0.00000000E+00  0.00000000E+00  0.00000000E+00
  0.00000000E+00  0.00000000E+00  0.00000000E+00
  0.00000000E+00  0.00000000E+00  0.00000000E+00
  0.00000000E+00  0.00000000E+00  0.00000000E+00
  0.00000000E+00  0.00000000E+00  0.00000000E+00
  0.00000000E+00  0.00000000E+00  0.00000000E+00
  0.00000000E+00  0.00000000E+00  0.00000000E+00
  0.00000000E+00  0.00000000E+00  0.00000000E+00
  0.00000000E+00  0.00000000E+00  0.00000000E+00
  0.00000000E+00  0.00000000E+00  0.00000000E+00
  0.00000000E+00  0.00000000E+00  0.00000000E+00
  0.00000000E+00  0.00000000E+00  0.00000000E+00
  0.00000000E+00  0.00000000E+00  0.00000000E+00
  0.00000000E+00  0.00000000E+00  0.00000000E+00
  0.00000000E+00  0.00000000E+00  0.00000000E+00
  0.00000000E+00  0.00000000E+00  0.00000000E+00
  0.00000000E+00  0.00000000E+00  0.00000000E+00
  0.00000000E+00  0.00000000E+00  0.00000000E+00
  0.00000000E+00  0.00000000E+00  0.00000000E+00
  0.00000000E+00  0.00000000E+00  0.00000000E+00
  0.00000000E+00  0.00000000E+00  0.00000000E+00
  0.00000000E+00  0.00000000E+00  0.00000000E+00
  0.00000000E+00  0.00000000E+00  0.00000000E+00
  0.00000000E+00  0.00000000E+00  0.00000000E+00
  0.00000000E+00  0.00000000E+00  0.00000000E+00
  0.00000000E+00  0.00000000E+00  0.00000000E+00
  0.00000000E+00  0.00000000E+00  0.00000000E+00
  0.00000000E+00  0.00000000E+00  0.00000000E+00
  0.00000000E+00  0.00000000E+00  0.00000000E+00
  0.00000000E+00  0.00000000E+00  0.00000000E+00
  0.00000000E+00  0.00000000E+00  0.00000000E+00
  0.00000000E+00  0.00000000E+00  0.00000000E+00
  0.00000000E+00  0.00000000E+00  0.00000000E+00
  0.00000000E+00  0.00000000E+00  0.00000000E+00
  0.00000000E+00  0.00000000E+00  0.00000000E+00
  0.00000000E+00  0.00000000E+00  0.00000000E+00
  0.00000000E+00  0.00000000E+00  0.00000000E+00
  0.00000000E+00  0.00000000E+00  0.00000000E+00
  0.00000000E+00  0.00000000E+00  0.00000000E+00
  0.00000000E+00  0.00000000E+00  0.00000000E+00
  0.00000000E+00  0.00000000E+00  0.00000000E+00
  0.00000000E+00  0.00000000E+00  0.00000000E+00
  0.00000000E+00  0.00000000E+00  0.00000000E+00
