Li Mg Bi  S  O 
 1.0000000000000000
    11.1784999999999997    0.0000000000000000    0.0000000000000000
     0.0000000000000000    9.5746000000000002    0.0000000000000000
     0.0000000000000000    0.0000000000000000   11.1823999999999995
 Li  Mg  Bi  S   O  
   4   6  16  16  16
Direct
  0.3739999563335921  0.0000451206944188  0.3244042158334563
  0.1298422419445244  0.9999422207176870  0.9242250770447806
  0.3665865841413453  0.0199175907758535  0.9963981878980018
  0.0797225939649631  0.9689099890172465  0.6317416033169438
  0.0979618585247411  0.9988477989693155  0.1891453288271548
  0.8581973449759659 -0.0064287314160273  0.4249685085434138
  0.6385846892327285  1.0040287483062296  0.1767744564979536
  0.3757011123125309  0.0054939190010728  0.7048673614812830
  0.8672319217767228 -0.0008884775246066  0.9385723422637746
  0.6437193224194019  0.9987502290293968  0.6902546982549753
  0.0021933157272015  0.3073692889352524  0.0577359043953655
  0.2396984033096715  0.7005691504656631  0.0650800266642421
  0.2493618568245843  0.3028092210463054  0.3043561093651094
  0.5013249011571639  0.6992319752497406  0.3025743159264613
  0.5060883833959791  0.3096944636164354  0.0649215588746115
  0.7447585586569855  0.6913577421702658  0.0609446735467857
  0.7476365475123992  0.3081090037475962  0.3155059093912477
  0.9962414664723285  0.6902400532534495  0.3139405501232956
  0.0032097466381151  0.2930568284415594  0.5541654360204203
  0.2467815019365923  0.7030668565728859  0.5682367188649304
  0.2568389620121485  0.3075083131903154  0.8201976647217457
  0.4987872181805536  0.6847315107283052  0.8072595699392038
  0.4984987684042775  0.3157953048416619  0.5677651864605054
  0.7459462047871368  0.6924352562867584  0.5601009918917031
  0.7551471307070482  0.3048661013455833  0.8080587990268512
  0.9964944739378440  0.6938409116371979  0.8169521886272708
  0.2508400109832890  0.3575735752624238  0.0655598937460892
 -0.0086310878271685  0.6434246712258738  0.0621729634098512
  0.5031482701817582  0.3381509616706280  0.3144408120644230
  0.2465981735869068  0.6839925712506657  0.3130318158762453
  0.7584283940325015  0.3411531406829728  0.0630534371630842
  0.4919098554712047  0.6616503509063256  0.0580004914899615
  1.0066183713550745  0.3516654484339555  0.3155795954509406
  0.7406283606951880  0.6488847302042711  0.3123478783459227
  0.2543385790886881  0.3246180894782217  0.5660566843599469
 -0.0046093718804140  0.6917693609463946  0.5616979300733201
  0.5058898711158670  0.3627954374600073  0.8162988505856346
  0.2431608907698299  0.6476699580671683  0.8154524467648431
  0.7537968675088685  0.3476490858146076  0.5626703173016957
  0.4926807404506146  0.6504592389345142  0.5612025018698139
  1.0048939782738837  0.3375684888706782  0.8119189149356915
  0.7521559095288002  0.6572618583654937  0.8090058565183362
  0.5113904614867094  0.0958286344667078  0.0719686338477774
  0.2158651215950472  0.9172428730935120  0.0622460469161776
  0.2312679695519917  0.0915368616901050  0.2818760172673785
 -0.0209854169180756  0.9076953046037533  0.3032945641425893
  1.0012307570342378  0.0846913710813329  0.0483023340185601
  0.7533434200085796  0.9102032565258134  0.0581962840677630
  0.7504440418139535  0.0894674341799107  0.3046081274301705
  0.5158192168765316  0.9117098004618166  0.2822943148274967
  0.5065991589037480  0.1071214051756716  0.6181490649151995
  0.2495461811636474  0.9131229193019814  0.6073159697752042
  0.2781561682726262  0.0901292700222396  0.8404964686278796
 -0.0019703210075720  0.9098479332356936  0.8346278394745063
  0.9785165811603672  0.0833359504494551  0.5354089905700169
  0.7414313040490915  0.9108971716110280  0.5545979503491127
  0.7565128880304933  0.0864661384340946  0.8122653351609679
  0.5084362056034474  0.8997571059181725  0.7824555802137679
