Li Mg Bi  S  O 
 1.0000000000000000
    11.1784999999999997    0.0000000000000000    0.0000000000000000
     0.0000000000000000    9.5746000000000002    0.0000000000000000
     0.0000000000000000    0.0000000000000000   11.1823999999999995
 Li  Mg  Bi  S   O  
   4   6  16  16  16
Direct
  0.3505648257954027  0.0234616776006820  0.4557641139934445
  0.8939808478549726 -0.0034643012829923  0.4427821949143340
  0.1446482992522287  1.0000777059461501  0.6911540808413298
  0.4461449476758598 -0.0188416530565620  0.6761322962715758
  0.3871061695741792 -0.0062928988345777  0.1752777711972213
  0.6297077883868573  0.9977918298600004  0.4237569683409318
  0.8603474158138152  0.0052658229216982  0.1752456320366619
  0.1126472624843325  0.9945689907253350  0.9559613557061339
  0.6285265605585397  0.9960746594028637  0.9409108200289381
  0.8637603993315964 -0.0096357127527103  0.7076290510146397
 -0.0016705140720175  0.3066798545465290  0.0670857981929621
  0.2485396947561146  0.6916550385623982  0.0637597565081911
  0.2552888189960904  0.3030541635052639  0.3081564242827565
  0.5014743507036011  0.6883248512481200  0.3097194156301071
  0.4997681550136200  0.2989917644446120  0.0574766755102358
  0.7537267313938607  0.6920419612397589  0.0617808528135791
  0.7507171562340009  0.3120306680959971  0.3138605678880173
  0.9952436868756310  0.7024458190750257  0.3096717871402622
 -0.0032727432178199  0.2950606381874423  0.5681605964520529
  0.2599084813886222  0.7153858107314376  0.5690454475805202
  0.2397487646077031  0.3016093559742694  0.8152909317433689
  0.5058295653142179  0.6922610322360480  0.8168902794028902
  0.4963680694833164  0.3045652115943087  0.5569043131692641
  0.7544879734625847  0.6912540350413758  0.5618923801742541
  0.7464632657302953  0.3018191885688900  0.8127066698241795
  1.0050511416221974  0.6850041438977018  0.8107989813888945
  0.2452904157519500  0.3445799747204295  0.0641548931136156
  0.0049268749821532  0.6633182299828414  0.0628671016262426
  0.4955826837523742  0.3618070804270343  0.3118773877741624
  0.2568441028719262  0.6708074258519815  0.3116243183160584
  0.7421522690725832  0.3414816882192745  0.0622506035394313
  0.5153073273351918  0.6566334654251686  0.0646928058402472
  0.9941158525990916  0.3359845209230736  0.3131695654319455
  0.7570841519283937  0.6396911731255234  0.3186804745462721
  0.2489580514026350  0.3255648147724537  0.5631185150170395
  0.0078599547604433  0.6583080803287925  0.5645883857128572
  0.4966294122350424  0.3275991630066377  0.8126055866139068
  0.2542748025590270  0.6529580256453790  0.8170239738256876
  0.7453874871071241  0.3468224218208647  0.5651160207144815
  0.5036440237336109  0.6588797141224781  0.5626178242469680
  0.9913197868301505  0.3542357410859861  0.8158977291689048
  0.7590088929531840  0.6632106408699635  0.8094699506563792
  0.5068735264515023  0.0806358384039579  0.0592752844405676
  0.2496231804844377  0.9105237846695897  0.0642957424682720
  0.2977493572766316  0.0961625340369365  0.3018693798203067
 -0.0468959981004479  0.9089214834574292  0.3021757089351344
  0.9902062690171249  0.0884183838220060  0.0645013764335461
  0.7466848682729248  0.9107778551944868  0.0606073247180465
  0.7552046912514030  0.0883454825086154  0.3155536674246707
  0.5040758122433202  0.9094861304992166  0.3101056454861391
  0.5061935734635921  0.0878058711725083  0.5332133682713578
  0.2806286368165191  0.9261793677970894  0.5911341301099615
  0.2037084992838834  0.0933848697589558  0.8303596273406401
  0.0068611239558856  0.9073355075205694  0.8098414976488725
  0.9768248815266601  0.0806253606085048  0.5902736901287843
  0.7594518511084202  0.9134153290897640  0.5494121328410017
  0.7478915590749201  0.0828671016250509  0.8200641526361734
  0.5206367197495085  0.9056809257116000  0.8188115308362558
