Li Mg Bi  S  O 
 1.0000000000000000
    11.1784999999999997    0.0000000000000000    0.0000000000000000
     0.0000000000000000    9.5746000000000002    0.0000000000000000
     0.0000000000000000    0.0000000000000000   11.1823999999999995
 Li  Mg  Bi  S   O  
  12   2  16  16  16
Direct
  0.3642801604068074  0.0027378130350590  0.4331474943045184
  0.1256240124350023  0.9994936797512263  0.1987681784544409
  0.3770887898451913  0.0006229535590362  0.1867542617188061
  0.6209701116115535  0.9986702802374705  0.4491483366887659
  0.6251612830727378  0.9984983733067923  0.1874791032257391
  0.8741147611946852 -0.0011130372494974  0.1800643964435166
  0.1255210989926765  0.9988422695357471  0.9371093087576398
  0.3736021171899810 -0.0013240998548162  0.9445788389943859
  0.1179550734972286  0.9980443670588655  0.6742790284667822
  0.6250840495191077  0.9994458320978670  0.9257099364355860
  0.8772833487954789  0.0003459531094503  0.9382522445121713
  0.8627926512928397  0.0020101726971029  0.6925830330248025
  0.8860925835188160  0.0034649648796014  0.4341013344167250
  0.3854735632845402  0.0031798142707862  0.6913144201943155
  0.0001010300727239  0.2944694748133549  0.0611595186521096
  0.2505170302902667  0.7042491416732487  0.0630318546341535
  0.2512118308599345  0.2920116287412275  0.3108693703375080
  0.5006073577288376  0.7053428084773595  0.3123334998687707
  0.4999924966440054  0.2944632009952180  0.0637653149590515
  0.7499759598960603  0.7043455895517241  0.0624215414100158
  0.7509177354780062  0.3055399978204950  0.3135446858262535
  1.0009277163796937  0.6996295294120528  0.3105237828274839
 -0.0009966651867044  0.3022755765070844  0.5658221881275632
  0.2521621429801714  0.7003117883092870  0.5642421471932875
  0.2511014705516741  0.3048300720097747  0.8127428736659433
  0.5003069376726265  0.6992737114319220  0.8136576292062510
  0.4973490716148745  0.3026071721400618  0.5599554191703843
  0.7526748692758972  0.7001621141772134  0.5613518215331788
  0.7507878829756033  0.2917316183602580  0.8144460608399776
  1.0007974676357010  0.7049094096882713  0.8131696068683458
  0.2514813913049929  0.3423231597261924  0.0616414977195935
  0.0003087611117594  0.6572236360939420  0.0630114616837717
  0.5019063488936265  0.3438315782168134  0.3123576609828689
  0.2505495881462937  0.6678386390775618  0.3133124504113149
  0.7510733626865651  0.3422030191543706  0.0640071841886262
  0.5003315188433078  0.6582340115604962  0.0633719820749558
  1.0012112504751347  0.3322739472656357  0.3143736602124401
  0.7508629254100491  0.6515205143744232  0.3131091674886714
  0.2495275328138388  0.3395291665306814  0.5642358385400015
 -0.0002380338835373  0.6630834762680357  0.5623066405763244
  0.5011129230773197  0.3325938431126875  0.8107320693580616
  0.2511341709954606  0.6509583964649427  0.8129029298326127
  0.7517868295304584  0.3409639941001074  0.5616131746099330
  0.5011025590413898  0.6627995720201970  0.5643800390699931
  1.0014261859968161  0.3432782639303092  0.8129137112620161
  0.7501801509615305  0.6672114963064011  0.8139680908282633
  0.5005219296490562  0.0768240276106705  0.0632125887213792
  0.2497816168915277  0.9217569993162494  0.0595029669230783
  0.2623103104349984  0.0788970965643423  0.2986721506474468
 -0.0166646267438258  0.9171189709168961  0.3026668548959602
  1.0010860913625064  0.0768153085155886  0.0615372596154028
  0.7498079843242254  0.9219449121621676  0.0662174110743305
  0.7593469185137950  0.0841625250146464  0.3185486305185193
  0.5054919799093062  0.9227282778421573  0.3125125616173568
  0.4814597243755185  0.0848959905590888  0.5547032858111133
  0.2648173450557744  0.9159943401046031  0.5830038771203121
  0.2599151247833951  0.0838127272719576  0.8078354323994135
  0.0048452298807568  0.9223358824817856  0.8128151164187951
  0.9817176201657277  0.0848029496510277  0.5709184561351258
  0.7656686952122728  0.9160541986421005  0.5429947330133988
  0.7620685293317948  0.0785364531738305  0.8270948577461401
  0.4829549288521773  0.9165429254032038  0.8223273823135693
