Li Mg Bi  S  O 
 1.0000000000000000
    11.1784999999999997    0.0000000000000000    0.0000000000000000
     0.0000000000000000    9.5746000000000002    0.0000000000000000
     0.0000000000000000    0.0000000000000000   11.1823999999999995
 Li  Mg  Bi  S   O  
  12   2  16  16  16
Direct
  0.3389119866111317  0.0287574302295921  0.4831644035919658
  0.1099610928966888  1.0159748411538152  0.2170694607131956
  0.6239137618514542  1.0028602633349035  0.4267819863693702
  0.8901422334577271 -0.0042893101153091  0.4468701477752027
  0.6314771649632547  1.0008130122405179  0.1836588276796117
  0.8699662443107981  0.0003477861661672  0.1891287153342565
  0.1249570978251814  1.0005564006330827  0.9513879574393342
  0.3677823498077520 -0.0057703999756227  0.9105911183262062
  0.6261015994416307  1.0018588530377956  0.9362638282745728
  0.8764463426284218  0.0002903182302548  0.9359814424204068
  0.6048056873771918  0.9955322118238458  0.6759125140898704
  0.8647139611520815  0.0022245378644354  0.6905208349746953
  0.3798565675901767  0.0002004612042021  0.1812616770886466
  0.1235802611505654  1.0027176072555122  0.6904247031886657
 -0.0008735351800652  0.2969282142480558  0.0632253951957264
  0.2535257561918904  0.6960466083329346  0.0592247376864333
  0.2519476785701661  0.3065559159140460  0.3094243669414076
  0.5028924320893833  0.6969666054700945  0.3074358305141510
  0.5027572700227427  0.3077117334036443  0.0604195453775834
  0.7532716789974434  0.7058657420821111  0.0597276787531262
  0.7495666309582067  0.2977921558684222  0.3122887136060455
  0.9977409727857685  0.7078184328376621  0.3108773321347666
 -0.0014444227285489  0.3004544524933296  0.5636191403882502
  0.2507774690258403  0.7026100493067524  0.5631456026603627
  0.2483274413698265  0.3015578684169992  0.8151356739932113
  0.5042711802514821  0.7072049195743741  0.8102029908187611
  0.5010871706750415  0.2947358301441911  0.5605783027590721
  0.7497466907271672  0.7039787524596102  0.5598650713858215
  0.7503036398843836  0.2963303331938983  0.8116693600816224
  1.0004540881155242  0.6931880898143209  0.8104654676940430
  0.2505067174737026  0.3503812773858146  0.0633615469275094
  0.0034131170403034  0.6599247945691044  0.0611695925855461
  0.4988193667436609  0.3536476284114479  0.3113241536684749
  0.2532570696823160  0.6690543963643487  0.3102023239497331
  0.7510552059508679  0.3460353860486191  0.0619570809591019
  0.5014149943020253  0.6487180058862156  0.0583333264482169
  1.0019679926236478  0.3289594786296867  0.3112414671919871
  0.7515196949428650  0.6535184338659740  0.3112786618264096
  0.2498973785156018  0.2979408459363728  0.5601462243538401
  0.0027528231785692  0.6502781913031584  0.5619291657630552
  0.4996294354046780  0.3289779351077685  0.8108475195426669
  0.2512183443920872  0.6538376764196755  0.8097185246111864
  0.7507571901533638  0.3462403277354838  0.5619496897691997
  0.5013268830584359  0.6674913715693975  0.5604882703634696
  1.0028761367593897  0.3529388139181468  0.8122992735982129
  0.7523225861802704  0.6557654568888075  0.8102640127943963
  0.5011412774753103  0.0871713383663213  0.0687778739568490
  0.2668397452991896  0.9167895418130617  0.0576930958848647
  0.2640678310737983  0.0897824372031877  0.2922206653258525
 -0.0178328093678142  0.9212916462077310  0.3049208306127725
  1.0002989661225485  0.0787716966155343  0.0631903455392981
  0.7507453341416771  0.9237461743429746  0.0603698378598825
  0.7452054988209937  0.0809471858948380  0.3078954436867686
  0.5066890413465254  0.9145295178303195  0.2869694017556224
  0.5092816171414690  0.0811037107857577  0.5424555061136560
  0.2366212284081220  0.9143562634623429  0.5773617553320155
  0.2249042165042309  0.0849206822776102  0.8253163843738327
  0.0043806266300302  0.9150000457833045  0.8094416730645222
  0.9890392062676238  0.0845133072806610  0.5891994958274871
  0.7521467170093776  0.9212484282429536  0.5608904410736116
  0.7559096408923489  0.0795971522336403  0.8164581066089894
  0.5122371614756954  0.9207191818877035  0.8234008420228472
