Li Mg Bi  S  O 
 1.0000000000000000
    11.1784999999999997    0.0000000000000000    0.0000000000000000
     0.0000000000000000    9.5746000000000002    0.0000000000000000
     0.0000000000000000    0.0000000000000000   11.1823999999999995
 Li  Mg  Bi  S   O  
  12   2  16  16  16
Direct
  0.3629205711729958 -0.0012333165544529  0.4424152556023885
  0.1191178559240709  1.0024126817515797  0.2005585409831462
  0.6181166523284825  1.0027534418359554  0.4240760687179067
  0.8622749889635244 -0.0008567089842614  0.1841311682167807
  0.1256072704164818  1.0019480552199669  0.9380152157991277
  0.3743810701893864  0.0014850280425035  0.9301984630520863
  0.1241584013588424  1.0002569601482503  0.6757709865585374
  0.3771945705899905 -0.0000587262376069  0.6884371852147232
  0.6257751082171171  1.0005160636749812  0.9499940134165533
  0.8770141731067722 -0.0001239009045626  0.9378461053864290
  0.6243311427238261  1.0018750134992767  0.6865092437224861
  0.8727694183228446  0.0012582156491918  0.6951868062265051
  0.3852048041793441 -0.0023975200582336  0.1841311183296662
  0.8846618403207323 -0.0023698891815652  0.4412460728301678
 -0.0000198278037338  0.2958444348171430  0.0622758083951861
  0.2509430520118425  0.6957601582907091  0.0621575463780966
  0.2518578348868604  0.3009418100531616  0.3115264194870996
  0.4982520949667079  0.6980408621186320  0.3137338510514717
  0.4993227113272481  0.3012421242087687  0.0600034438862768
  0.7531618014521206  0.7077748920290013  0.0612727547012780
  0.7513768372804438  0.3015597635155431  0.3140229914792628
  0.9997658321115991  0.6987273216330103  0.3117161467719635
 -0.0001136022954387  0.3001770553705077  0.5654655295667012
  0.2519192596378267  0.7087483726691457  0.5648688082005280
  0.2493718631781043  0.2953380715727965  0.8120982158017127
  0.5011666342468928  0.7063554706243601  0.8114798277079950
  0.4999361751829622  0.2962998593991008  0.5629666060312107
  0.7505795437221431  0.6954584580441876  0.5618591440568285
  0.7491866591338403  0.2953058547186030  0.8127532547816056
  1.0011753217687396  0.7066438272099079  0.8135408841707421
  0.2500902651488638  0.3490976223401723  0.0641355212254097
  0.0010937684548220  0.6563542964602417  0.0629304677605428
  0.5019557905808683  0.3371430349777078  0.3117871843643795
  0.2499502937287326  0.6598522010081471  0.3124985810855348
  0.7508373974265435  0.3333695244871450  0.0611555358999410
  0.5004746428857945  0.6664473464673730  0.0645149851883846
  1.0003774103819925  0.3357864036293759  0.3146951369567034
  0.7508450232650123  0.6585992608427155  0.3142708844712104
  0.2518165164211960  0.3316512450312477  0.5621982478244824
  0.0005745014201010  0.6681704059572394  0.5618934474890750
  0.5003375398200025  0.3431998505321724  0.8120831807000366
  0.2503159861111973  0.6574743665438284  0.8138452532182722
  0.7524227995218361  0.3483318125761080  0.5633641093961906
  0.5013452309142270  0.6565844557822536  0.5627607260254157
  1.0013948198242226  0.3425065543893998  0.8130150798998658
  0.7507923218989470  0.6587903871288874  0.8116272440867422
  0.4828083175082189  0.0837993466560078  0.0527162987580050
  0.2596502865105203  0.9168298282983329  0.0680652980743880
  0.2653075202873492  0.0850892844342704  0.2931168798163749
 -0.0182627758267220  0.9163446879723901  0.3053964745815044
  1.0046071403158010  0.0783781137191500  0.0627056627946853
  0.7623998902300950  0.9210425994153566  0.0492685642682387
  0.7644849558086648  0.0855685299806727  0.3325549130406667
  0.4812815904875762  0.9156521367633166  0.3203043200351518
  0.5048164035579280  0.0787233846517964  0.5628288786885526
  0.2621377320580766  0.9216031033447439  0.5770096284342582
  0.2492492676357282  0.0777571612665235  0.8164068163150292
  0.0006967061107853  0.9240815985040409  0.8138590464304009
  0.9825942227351999  0.0828932341463222  0.5730718858802701
  0.7591434477552033  0.9166198652737068  0.5569853012918961
  0.7484851407104438  0.0777900891160530  0.8093608059679017
  0.5005076791024795  0.9238701201481513  0.8118178774674487
