Li Mg Bi  S  O 
 1.0000000000000000
    11.1784999999999997    0.0000000000000000    0.0000000000000000
     0.0000000000000000    9.5746000000000002    0.0000000000000000
     0.0000000000000000    0.0000000000000000   11.1823999999999995
 Li  Mg  Bi  S   O  
  10   3  16  16  16
Direct
  0.3432927834551019 -0.0155666201399488  0.4196899686789260
  0.1069455409857949  1.0135184451952739  0.2474384550909124
  0.3757724712663773  0.0024955941591139  0.1828770311008102
  0.6159492781411605  1.0007308849754577  0.4259880207234438
  0.6656104759417144  1.0181535789850211  0.1651741481027096
  0.1334835509152389  1.0026618778602701  0.9378098726538493
  0.3798993124253870  0.0012271600863074  0.9421701219310443
  0.0467677232785721  0.9823613669012140  0.6681435221913247
  0.6197880688625002  0.9977718946306895  0.9233430775906412
  0.6695834562998508  1.0205703910438171  0.6647665890137257
  0.8703743703086237  0.0013989668994480  0.4261957264971328
  0.3849798366326475  0.0021310529424856  0.6896279164566345
  0.8770674349079811  0.0018616390638746  0.9266820573731471
  0.0041492281526345  0.3080127965706283  0.0531619500268268
  0.2517863977263758  0.7072149225043626  0.0590684956359783
  0.2528156715659618  0.3010023976964558  0.3067105278337193
  0.4962163495298535  0.7060614161528561  0.3113482994119223
  0.5032008764657636  0.2981665114424553  0.0637597039152371
  0.7512253876012609  0.7008894608825533  0.0548303559008220
  0.7490623815715026  0.3088165587862040  0.3104797656206297
  0.9999408284120985  0.6955218732297612  0.3101707782619566
 -0.0004750019514459  0.3010562615255541  0.5558228948637629
  0.2553703338990067  0.6941401773778928  0.5621268721371320
  0.2572752800707431  0.3054080726428909  0.8115630189906674
  0.4989910162038941  0.6936258111932523  0.8135795853922702
  0.5037651433574091  0.3087205072159187  0.5639750481481618
  0.7478749501495545  0.6970987169268569  0.5526561852954837
  0.7527132319667813  0.3067417456172501  0.8105834187883132
  1.0021976257060929  0.6917977685044394  0.8118538466500131
  0.2524771146422944  0.3511867255976566  0.0604914482822933
 -0.0005684886254209  0.6587205778344929  0.0585223742611914
  0.5017866325220206  0.3450224801433542  0.3130182791514160
  0.2490856019130220  0.6644697642858431  0.3113463033555481
  0.7534443038963132  0.3415634132663490  0.0626966016800190
  0.5005125177267316  0.6558970641424851  0.0601482391436241
  1.0044222424396851  0.3291452886855565  0.3082792593348259
  0.7486968737492508  0.6509049716098447  0.3079266157035500
  0.2544072892442936  0.3287359691602558  0.5639359765051283
 -0.0035980719715401  0.6719775337991885  0.5611563734128331
  0.5079862656943818  0.3536596590087038  0.8155637853862701
  0.2482245237046082  0.6493053973316770  0.8052292299140071
  0.7521769288223553  0.3520343717159823  0.5597867226030927
  0.5021329750075390  0.6468753427155367  0.5624656400095983
  1.0029936795405199  0.3451455494802961  0.8056553109561470
  0.7519833209718755  0.6591847279201501  0.8110451528537612
  0.5095176347905539  0.0811057518888085  0.0595566451141723
  0.2619097771414500  0.9214732768211384  0.0521333981014365
  0.2582004397007455  0.0862506405693661  0.2959707021074908
 -0.0135779590274363  0.9089631695024594  0.3186548350517386
  1.0007121500603451  0.0950157113785087  0.0266127519398385
  0.7473058343257706  0.9181427888260892  0.0322063004801114
  0.7415654793809723  0.0906559086274410  0.3212048630262088
  0.4882331832220922  0.9213859598556180  0.3197629462912887
  0.5136530330648903  0.0905178255729605  0.5854085830535350
  0.2818656407078472  0.9074951913605399  0.5701458518954289
  0.2758595299306276  0.0886325068608234  0.8146315753763629
  0.0061854558511847  0.9111846811676553  0.8241268458498404
  0.9748089313218887  0.0887908638557499  0.5500651070099216
  0.7407448607906089  0.9146670940449947  0.5306094638684031
  0.7484400030043107  0.0878862212164969  0.8185971750726250
  0.4902635201158850  0.9136235605523896  0.8161339334122074
