Li Mg Bi  S  O 
 1.0000000000000000
    11.1784999999999997    0.0000000000000000    0.0000000000000000
     0.0000000000000000    9.5746000000000002    0.0000000000000000
     0.0000000000000000    0.0000000000000000   11.1823999999999995
 Li  Mg  Bi  S   O  
   6   5  16  16  16
Direct
  0.3186377860793477 -0.0243696429289830  0.4133949316995540
  0.6140787983999154  1.0029728903180388  0.4472789917255345
  0.8731559199602896 -0.0011264256268717  0.3380223027043315
  0.1180677204327425  0.9976503451415841  0.9264625455835716
  0.8190773993910954  0.0285714573930514  0.9785668072896293
  0.8796849449539141  0.0023601215661545  0.6873627051417621
  0.1302673316169368  0.9952719547194432  0.1768452494765205
  0.6044928140210107  1.0026158087972232  0.1888440072800273
  0.3785296158601903 -0.0024137232926126  0.9405883512236056
  0.1450358996977615  1.0021231747092656  0.6791011419856081
  0.6176474348704593  0.9991538940577526  0.7110827784215537
  0.0034646924604659  0.3039839551333043  0.0613040885567393
  0.2470847040126021  0.6876098902004480  0.0611272023708101
  0.2478970334020848  0.2971312130078347  0.3111827604098783
  0.5023179240015384  0.6919096235577020  0.3171399353803778
  0.4996981317317034  0.3059229344370633  0.0648274820110564
  0.7476952793590760  0.7037408035363965  0.0694436052595115
  0.7467060114860429  0.3054277423485863  0.3174420537658357
  1.0027734898901681  0.6939648350394682  0.3099429661809390
  0.0045964101994567  0.3032944582751895  0.5675688464015944
  0.2518711140407073  0.6913755289886483  0.5634141022071903
  0.2531307537373164  0.3059121282877394  0.8131585848794576
  0.4996356825948469  0.6895532645355184  0.8176914978845621
  0.5071763554693732  0.3051583889164723  0.5661763709846276
  0.7453564745936324  0.6960433658035641  0.5714507243427775
  0.7548833525960909  0.3046001056698009  0.8099055789836992
  1.0014787495548110  0.6935859744849125  0.8058935731937944
  0.2508911091314669  0.3541239026659417  0.0604022679166272
 -0.0030973410672266  0.6511537349996662  0.0675009533078215
  0.5003511304294717  0.3452106675519214  0.3119881695196511
  0.2537735101589876  0.6708287441370944  0.3118314331327913
  0.7544556511499446  0.3162299221005110  0.0608433539809331
  0.5029418794326116  0.6545723567087983  0.0647955356183325
  1.0033940907178509  0.3267054013247939  0.3135170267146419
  0.7479615065610031  0.6509473466365723  0.3165679546311559
  0.2532982256800677  0.3123034044989750  0.5680580974279378
  0.0041710092977435  0.6494948616534869  0.5632326272146797
  0.5024092178098081  0.3351382698011637  0.8187148393360689
  0.2508592472995087  0.6429155264468434  0.8166195144992037
  0.7493358102048587  0.3552863934076316  0.5623688944976395
  0.4977396907927661  0.6516500984429618  0.5682696108655046
  1.0010616231090355  0.3545920209198611  0.8127179838735210
  0.7496057350139135  0.6540574622941231  0.8142850845236420
  0.4903748459251634  0.0864860120318783  0.0637398270177421
  0.2390099449578687  0.9095634477444133  0.0411451811179547
  0.2434761040009065  0.0850286838829610  0.2906511843299295
  0.0086779219463368  0.9067164858005785  0.2839735966401838
  1.0234154658011680  0.0878848905199903  0.0532995126990717
  0.7299236200543926  0.9160746511030328  0.0837289372969857
  0.7212738927844349  0.0885079755002688  0.3157233552387421
  0.5146318415414723  0.9079211591618019  0.3223656692552080
  0.5338827484021988  0.0946504045530474  0.5778011427181697
  0.2478573147932232  0.9049550034574775  0.5619410242693581
  0.2460013142634766  0.0832214568269176  0.8251026761794192
  0.0264059956377158  0.9083634738474111  0.7917491020566341
  1.0061848903764512  0.0930328134960457  0.5975498929640879
  0.7335025829922088  0.9111942639211404  0.5911987454793366
  0.7578598623243454  0.0852515071336055  0.8049202468258446
  0.4962724467760239  0.9086417316256844  0.8234425854581967
