Li10 Mg3 Bi16 S16 O16                   
   1.00000000000000     
    11.2417874207052755    0.0791896572060306    0.0001155983445539
     0.0669170464986066    9.4893279929014334    0.0002595197921339
     0.0001162018258699    0.0002474265286197   11.2111115007074336
   Li   Mg   Bi   S    O 
    10     3    16    16    16
Direct
  0.3750615831195936  0.0001152167215484  0.4422855814251945
  0.2006241236260273  0.9643459573361259  0.2245948704875032
  0.5508869957488457  0.0358451213848738  0.2251942079630754
  0.8747286416153151 -0.0001074000819033  0.1861931516871097
  0.1368876426875440  0.0128652035036393  0.9493640429304187
  0.3751645856787366 -0.0001164045034310  0.9463726071654220
  0.1444705939037113  0.0151735614047279  0.6621377661535729
  0.3749042211461496  0.0000775989800785  0.6942894369028328
  0.6132755560577881  0.9872595845524706  0.9491970151677225
  0.6051856489620699  0.9843225135982575  0.6612771672411342
  0.8747801446057367  0.0000342354035360  0.4314054593449720
  0.8750776723663971 -0.0000503795533009  0.9369579751171180
  0.8748679913106819 -0.0000504336807291  0.6881188522359818
  0.0002598664956310  0.3071643624681030  0.0603033165729248
  0.2522864650976720  0.6991819962249489  0.0585652177315042
  0.2537182368431098  0.2991922943573821  0.3153718697581924
  0.4962576517067203  0.7009783753374358  0.3153469077941792
  0.4977493684510192  0.3006687700965741  0.0586208026593657
  0.7497676029151603  0.6927928330120366  0.0603083927255610
  0.7524935230934781  0.3116294975342607  0.3095692137004703
 -0.0026090503499094  0.6884424893032474  0.3095775673568846
 -0.0009048532519644  0.3114256936575328  0.5571524720045919
  0.2544459785296196  0.7036896434621190  0.5616304423898528
  0.2516397721788590  0.3033088843546621  0.8124276793090567
  0.4983143542518968  0.6967197872636993  0.8124543180721638
  0.4954502559527626  0.2964441916876497  0.5616564889497003
  0.7508321073393101  0.6884216417888633  0.5571659084381227
  0.7499171698879477  0.3179159918850552  0.8111749939742073
  0.0000599674477652  0.6820200498380532  0.8111239636310501
  0.2501541482495783  0.3337028391306621  0.0594667836998338
 -0.0028811081681939  0.6531627253431935  0.0573776091664075
  0.5085125398509235  0.3061721278120492  0.3072240842543663
  0.2414349756747144  0.6943065162326012  0.3071781814428624
  0.7528984406201339  0.3469280064455428  0.0573908183778089
  0.4998524921857604  0.6662446823747693  0.0594982618308689
  0.0050050566284296  0.3405403196553251  0.3108476561894089
  0.7448880979453296  0.6591929240269063  0.3108367251259396
  0.2507510885740074  0.3502663339020986  0.5631635128597674
 -0.0042214345024410  0.6529618793751847  0.5605291089291948
  0.5035963351957682  0.3457517996216434  0.8094174755986765
  0.2463928184630054  0.6541454905901558  0.8094076931158221
  0.7542167820428206  0.3470252041782573  0.5605276228990865
  0.4992850462803957  0.6500230392272862  0.5632141524855619
  0.0017480090274958  0.3503675649095734  0.8092801408343953
  0.7482395250015950  0.6496890391551354  0.8092901983196811
  0.5059688412023704  0.0843915595135149  0.0528028185214082
  0.2443720530347153  0.9155143633338823  0.0526187433975573
  0.2588354304894072  0.0899310038173792  0.3320914228538729
 -0.0276998127746020  0.9039742232228395  0.3085316293336417
  0.9898576982393744  0.0877860026663894  0.0432375061357734
  0.7602705732574117  0.9122081146136440  0.0433261853959812
  0.7769422689367849  0.0958957826662061  0.3084626650250595
  0.4913209560078019  0.9102571758706812  0.3320472813055502
  0.4833619901209739  0.0840427609623074  0.5806060381226901
  0.2663510076999823  0.9160462478487126  0.5807981312850166
  0.2456221824261515  0.0834230245765483  0.8116975981156610
 -0.0209476209648729  0.9088729230824334  0.8110451974333254
  0.9791627633776451  0.0866310316344712  0.5673818194655629
  0.7704447931994627  0.9133268031536478  0.5674256615730773
  0.7710102317221370  0.0911297812149797  0.8112460050585243
  0.5042700135382606  0.9166078325044361  0.8116635829577573
 
  0.00000000E+00  0.00000000E+00  0.00000000E+00
  0.00000000E+00  0.00000000E+00  0.00000000E+00
  0.00000000E+00  0.00000000E+00  0.00000000E+00
  0.00000000E+00  0.00000000E+00  0.00000000E+00
  0.00000000E+00  0.00000000E+00  0.00000000E+00
  0.00000000E+00  0.00000000E+00  0.00000000E+00
  0.00000000E+00  0.00000000E+00  0.00000000E+00
  0.00000000E+00  0.00000000E+00  0.00000000E+00
  0.00000000E+00  0.00000000E+00  0.00000000E+00
  0.00000000E+00  0.00000000E+00  0.00000000E+00
  0.00000000E+00  0.00000000E+00  0.00000000E+00
  0.00000000E+00  0.00000000E+00  0.00000000E+00
  0.00000000E+00  0.00000000E+00  0.00000000E+00
  0.00000000E+00  0.00000000E+00  0.00000000E+00
  0.00000000E+00  0.00000000E+00  0.00000000E+00
  0.00000000E+00  0.00000000E+00  0.00000000E+00
  0.00000000E+00  0.00000000E+00  0.00000000E+00
  0.00000000E+00  0.00000000E+00  0.00000000E+00
  0.00000000E+00  0.00000000E+00  0.00000000E+00
  0.00000000E+00  0.00000000E+00  0.00000000E+00
  0.00000000E+00  0.00000000E+00  0.00000000E+00
  0.00000000E+00  0.00000000E+00  0.00000000E+00
  0.00000000E+00  0.00000000E+00  0.00000000E+00
  0.00000000E+00  0.00000000E+00  0.00000000E+00
  0.00000000E+00  0.00000000E+00  0.00000000E+00
  0.00000000E+00  0.00000000E+00  0.00000000E+00
  0.00000000E+00  0.00000000E+00  0.00000000E+00
  0.00000000E+00  0.00000000E+00  0.00000000E+00
  0.00000000E+00  0.00000000E+00  0.00000000E+00
  0.00000000E+00  0.00000000E+00  0.00000000E+00
  0.00000000E+00  0.00000000E+00  0.00000000E+00
  0.00000000E+00  0.00000000E+00  0.00000000E+00
  0.00000000E+00  0.00000000E+00  0.00000000E+00
  0.00000000E+00  0.00000000E+00  0.00000000E+00
  0.00000000E+00  0.00000000E+00  0.00000000E+00
  0.00000000E+00  0.00000000E+00  0.00000000E+00
  0.00000000E+00  0.00000000E+00  0.00000000E+00
  0.00000000E+00  0.00000000E+00  0.00000000E+00
  0.00000000E+00  0.00000000E+00  0.00000000E+00
  0.00000000E+00  0.00000000E+00  0.00000000E+00
  0.00000000E+00  0.00000000E+00  0.00000000E+00
  0.00000000E+00  0.00000000E+00  0.00000000E+00
  0.00000000E+00  0.00000000E+00  0.00000000E+00
  0.00000000E+00  0.00000000E+00  0.00000000E+00
  0.00000000E+00  0.00000000E+00  0.00000000E+00
  0.00000000E+00  0.00000000E+00  0.00000000E+00
  0.00000000E+00  0.00000000E+00  0.00000000E+00
  0.00000000E+00  0.00000000E+00  0.00000000E+00
  0.00000000E+00  0.00000000E+00  0.00000000E+00
  0.00000000E+00  0.00000000E+00  0.00000000E+00
  0.00000000E+00  0.00000000E+00  0.00000000E+00
  0.00000000E+00  0.00000000E+00  0.00000000E+00
  0.00000000E+00  0.00000000E+00  0.00000000E+00
  0.00000000E+00  0.00000000E+00  0.00000000E+00
  0.00000000E+00  0.00000000E+00  0.00000000E+00
  0.00000000E+00  0.00000000E+00  0.00000000E+00
  0.00000000E+00  0.00000000E+00  0.00000000E+00
  0.00000000E+00  0.00000000E+00  0.00000000E+00
  0.00000000E+00  0.00000000E+00  0.00000000E+00
  0.00000000E+00  0.00000000E+00  0.00000000E+00
  0.00000000E+00  0.00000000E+00  0.00000000E+00
