Li Mg Bi  S  O 
 1.0000000000000000
    11.1784999999999997    0.0000000000000000    0.0000000000000000
     0.0000000000000000    9.5746000000000002    0.0000000000000000
     0.0000000000000000    0.0000000000000000   11.1823999999999995
 Li  Mg  Bi  S   O  
  10   3  16  16  16
Direct
  0.3215284594814157  0.0288904558501407  0.4698826334215967
  0.3769813816928836  0.0015747284362248  0.2006130231596982
  0.1169353019638278  1.0048060030888808  0.9330173462960168
  0.3682411009550469  0.0022279978669766  0.9539511735489432
  0.0902599294180355  0.9854913225878577  0.6727277137328566
  0.3736429148612542  0.0035660476722196  0.7100888101172423
  0.6253310481656074  0.9930516581249145  0.9330562371638966
  0.8687096422693334  0.0013556370005562  0.9678096991301525
  0.6083045774763128  0.9844898042098044  0.5206427410664017
  0.8517242237852030 -0.0067402910353128  0.7005978963423811
  0.1126884300617071  0.9992763953543407  0.2036816207946700
  0.8740550085006756 -0.0064391516854815  0.4318133586892907
  0.6356450790697814  1.0006671891447592  0.1974167674722469
 -0.0002466200615889  0.3013020986127777  0.0673674747392680
  0.2425577159345690  0.6990600766226062  0.0714272713691039
  0.2450677021296372  0.3065221310945542  0.3183970727454671
  0.4969840514818579  0.6954135004500663  0.3128783430109277
  0.4990135090583568  0.3068192028377129  0.0718439547914603
  0.7441291419400894  0.6922817950171601  0.0658465984953250
  0.7434003412770219  0.3045837074277002  0.3230805821595431
  0.9982841941802247  0.6884624224582090  0.3216126274320565
 -0.0098853243031427  0.2938952305034038  0.5703140029517297
  0.2469604544605384  0.7160397259304527  0.5754637129106313
  0.2471705179434004  0.2986751786430573  0.8233547413820369
  0.4941979388899894  0.7084120477675446  0.8215391079014117
  0.4865481124785852  0.3002251823345032  0.5730566771733061
  0.7456402755791646  0.6850749761058580  0.5667634432109657
  0.7480137850625228  0.2887417593106582  0.8238449471804223
  0.9951487708801916  0.6995692533689306  0.8159261436950884
  0.2444935913910989  0.3558994393758405  0.0733235734838978
 -0.0057176224100048  0.6598211564128601  0.0733529153566652
  0.4976067433155973  0.3466399581187362  0.3222575354720384
  0.2472576544969783  0.6628426800959687  0.3184317114429521
  0.7482289745167365  0.3385402705814490  0.0741309602035998
  0.4963009791610018  0.6443815185988762  0.0640150470902530
  0.9973232082420613  0.3279223548013642  0.3223920690548082
  0.7419698564792059  0.6481305704367403  0.3201809366067596
  0.2468005588171115  0.3420748738672025  0.5715426193963801
 -0.0033294667317754  0.6452206300609525  0.5653047987806716
  0.4982147527920540  0.3359767059533850  0.8201823395686069
  0.2441449610848353  0.6534140324705435  0.8183461398826912
  0.7479885862381057  0.3397812907372657  0.5683622474829835
  0.4994852117393510  0.7016447205505899  0.5681233782195722
  0.9959512653703526  0.3452673906502070  0.8210714141202206
  0.7480395454771936  0.6585593803840407  0.8166606446379847
  0.5070333551614311  0.0869170448305175  0.0827217976121584
  0.2413313859107067  0.9199778096491104  0.0842055094519520
  0.2473437299094469  0.0886226529104036  0.3041875004742310
 -0.0047253778469446  0.9078938302165888  0.3184894525788233
  1.0158279791704985  0.0833835376148992  0.0663815097344033
  0.7291633093503871  0.9105643620314163  0.0650003211029343
  0.7435532549885053  0.0831421618126912  0.3270876760315600
  0.5073124281078844  0.9097751591030067  0.2922453281456497
  0.4684703030338770  0.0870818830521401  0.5666950594125639
  0.2402902303116830  0.9284700672753132  0.5949491578706669
  0.2502735193220452  0.0841326834765139  0.8379620947903869
 -0.0016651536225127  0.9164467150715647  0.8146778444973909
  0.9656429502974238  0.0768770331905829  0.5726247094003811
  0.7636386060766032  0.9024376596435576  0.5544900349345508
  0.7607766039940849  0.0763308810638309  0.8390024841697307
  0.4823009046013572  0.9200731505580920  0.8419569498025528
