Li Mg Bi  S  O 
 1.0000000000000000
    11.1784999999999997    0.0000000000000000    0.0000000000000000
     0.0000000000000000    9.5746000000000002    0.0000000000000000
     0.0000000000000000    0.0000000000000000   11.1823999999999995
 Li  Mg  Bi  S   O  
   2   7  16  16  16
Direct
  0.4032796625015540 -0.0351137209901548  0.5141514943459577
  0.1076656943013508  0.9765644031298671  0.1012043545248179
  0.3364213259566543  0.0088249132058768  0.1982445691223572
  0.8578959071081071 -0.0069166371413953  0.4796873791923432
  0.8477157593011112 -0.0102277546252727  0.2081778895366517
  0.3597823499787892 -0.0373817681957773  0.9287555655300334
  0.1087682967355176  0.9813996672809556  0.7048532929209582
  0.8675558475292208 -0.0252888872006521  0.9370103404454745
  0.6236355327576240  0.9725464535957606  0.7243920627098231
  0.0076127809130905  0.2808858915519455  0.0976568946347293
  0.2445262508659818  0.6602212574770939  0.0789923604855437
  0.2542533487864974  0.2960586242549242  0.3429064505183245
  0.4774656562229716  0.7234961920267468  0.3361348277763469
  0.4878181221717065  0.2706720574519982  0.0788912341287153
  0.7448239982795638  0.6679731393111180  0.0837384910171662
  0.7439023979392445  0.3102705926815542  0.3330653706484737
  0.9811423503752821  0.6843244713895522  0.3357320213952867
 -0.0036697669942406  0.2921823808254124  0.5815101863814398
  0.2366728449690951  0.6830228273191579  0.5831648695596167
  0.2464193328276515  0.2770579025546392  0.8261650167242360
  0.4927886404395280  0.6585945380312090  0.8351772422720207
  0.5068459372830195  0.2746681880589633  0.5858970536698336
  0.7306532159775867  0.6767000305843711  0.5820565245803737
  0.7499353790225868  0.2844954751028950  0.8404989389329290
  0.9886345603843941  0.6702049075246755  0.8320257553666520
  0.2584330478747343  0.3385749466575473  0.0668520869794676
 -0.0031065678400370  0.6351294844989431  0.0893114214610277
  0.4979485995288316  0.3021612348328840  0.3380653379807444
  0.2414913445723047  0.6445201622475990  0.3396995964854325
  0.7603461516506937  0.3312122192118733  0.0852442548870723
  0.4887985710002278  0.6315451095341580  0.0905983592695494
  0.9978965305259639  0.3498944654704002  0.3410020226253601
  0.7410888539144677  0.6400984339019082  0.3293492844326475
  0.2517787351997789  0.3066635162802249  0.5846539241361197
 -0.0311523302287808  0.6401879077575100  0.5863766720878369
  0.5061728568980814  0.3198730838868366  0.8348894237055139
  0.2306583790602457  0.6395241179356275  0.8360835567840843
  0.7525997633063164  0.3272845015566403  0.5912318064564985
  0.4894386935225779  0.6574539617610826  0.5769502583851709
  1.0053222524108381  0.3232829764768255  0.8352316684599700
  0.7339816603127151  0.6339956623920343  0.8379447885192514
  0.4404428726317083  0.0636922469363033  0.0629369021098634
  0.2558478105375390  0.8836012204709904  0.0725359728388780
  0.1909633025637146  0.1077290624239153  0.2343602966574059
 -0.0597335124041230  0.8962365728332296  0.3386242345764219
  0.9611190344684257  0.0616187395335496  0.0758505509756501
  0.7767829343232319  0.8824547429165933  0.0728232672651105
  0.7766132027314109  0.0971801774366686  0.3416485245399162
  0.4322025671773697  0.9308014401330563  0.3353818911574194
  0.5137158033433762  0.0631534561723923  0.6089814547660620
  0.2321568414654853  0.8962361686776408  0.5925643070408673
  0.2317812566223293  0.0578388264858002  0.8306629519766729
 -0.0079931489725500  0.8900410214775323  0.8270560054469649
  0.9891816295197352  0.0745984176318667  0.5881237772474797
  0.7381138266402502  0.8946770417885779  0.5896005859032986
  0.7441214541415145  0.0648057859382456  0.8344599130937217
  0.4938712582491626  0.8774844998419579  0.8304134011449354
