Li Mg Bi  S  O 
 1.0000000000000000
    11.1784999999999997    0.0000000000000000    0.0000000000000000
     0.0000000000000000    9.5746000000000002    0.0000000000000000
     0.0000000000000000    0.0000000000000000   11.1823999999999995
 Li  Mg  Bi  S   O  
   8   4  16  16  16
Direct
  0.3509115865239841  0.0003818592962742  0.4358126445963490
  0.3779727586980989  0.0001039052666759  0.1843746870035810
  0.6211988035654925  0.9993637091307567  0.4352974219832160
  0.6495832945351300  0.9993058621230025  0.1856328305371755
  0.3509115865239029  0.0003818592963030  0.9358126445963588
  0.3779727586981139  0.0001039052666851  0.6843746870036190
  0.6211988035655014  0.9993637091307459  0.9352974219832272
  0.6495832945350412  0.9993058621229666  0.6856328305372235
  0.1137495472550528  0.9982832300550710  0.1858931821119804
  0.8858987697962756 -0.0013480417793371  0.4359913092931643
  0.1137495472550655  0.9982832300550623  0.6858931821119209
  0.8858987697963463 -0.0013480417793345  0.9359913092932454
  0.0001061620666062  0.3033754856642958  0.0612969718261966
  0.2531356703063487  0.6979872625850033  0.0640592745646078
  0.2518862650273669  0.3015020127994453  0.3061569686442402
  0.5003681203651001  0.7079392885168219  0.3112433279205004
  0.4993599031400497  0.2924778869010763  0.0606323872325876
  0.7483276321457716  0.6981966402068650  0.0570911532125494
  0.7493679477317657  0.2992073695866641  0.3146079795043724
  1.0002714781623301  0.6932754375558348  0.3132929908897291
  0.0001061620665899  0.3033754856642916  0.5612969718262169
  0.2531356703063634  0.6979872625849852  0.5640592745646249
  0.2518862650273667  0.3015020127994996  0.8061569686442375
  0.5003681203651280  0.7079392885167239  0.8112433279205200
  0.4993599031400672  0.2924778869010901  0.5606323872325658
  0.7483276321457644  0.6981966402068090  0.5570911532125260
  0.7493679477317595  0.2992073695866937  0.8146079795043899
  1.0002714781623026  0.6932754375558503  0.8132929908897000
  0.2486332921930257  0.3457917990253608  0.0602212036849251
 -0.0014030639649160  0.6664126563968530  0.0623888106510177
  0.5000052131484600  0.3434576905423395  0.3115481572292249
  0.2486258304586558  0.6557688361219820  0.3114486171568202
  0.7508065213236443  0.3399701881159752  0.0634800398213397
  0.4998104509843965  0.6568639534685955  0.0624132556158410
  0.9991663692523879  0.3350442431804244  0.3116359458865906
  0.7500951225851391  0.6541560022655430  0.3129665904992195
  0.2486332921930519  0.3457917990253294  0.5602212036849179
 -0.0014030639649157  0.6664126563968606  0.5623888106510194
  0.5000052131484639  0.3434576905423474  0.8115481572292438
  0.2486258304586504  0.6557688361219363  0.8114486171568194
  0.7508065213236196  0.3399701881159420  0.5634800398213116
  0.4998104509844041  0.6568639534685707  0.5624132556158399
  0.9991663692523707  0.3350442431804291  0.8116359458865586
  0.7500951225851219  0.6541560022655578  0.8129665904992383
  0.4985427563530753  0.0762019173520806  0.0595781475263156
  0.2513196880788792  0.9153987922991080  0.0786254109998474
  0.2501782430439969  0.0845902944090941  0.2886342948046858
  0.0000319204666053  0.9122122469157568  0.3113155899305269
  1.0004094115315334  0.0846855587433269  0.0608943872131354
  0.7476483976369008  0.9155767076016849  0.0400581919977697
  0.7502289399687930  0.0822706619852532  0.3300643029275914
  0.5001821872567432  0.9243445255122124  0.3102464714908664
  0.4985427563530803  0.0762019173522245  0.5595781475263318
  0.2513196880789114  0.9153987922990926  0.5786254109998399
  0.2501782430439565  0.0845902944092069  0.7886342948046235
  0.0000319204666405  0.9122122469157549  0.8113155899305013
  1.0004094115314390  0.0846855587433388  0.5608943872132139
  0.7476483976368585  0.9155767076015813  0.5400581919977439
  0.7502289399688188  0.0822706619852890  0.8300643029276207
  0.5001821872567991  0.9243445255122111  0.8102464714908681
