Li4 Mg6 Bi16 S16 O16                    
   1.00000000000000     
    11.2681893808021911   -0.0974005011126635    0.0186395466656068
    -0.0821110919966455    9.6845925818611818    0.0014426756467750
     0.0174310784628027    0.0053946666672961   11.2541845499473627
   Li   Mg   Bi   S    O 
     4     6    16    16    16
Direct
  0.3851508121223328 -0.0039834902122478  0.2062847490480915
  0.0570758718601528 -0.0186372567325837  0.4706777515777500
  0.1956050476086260  0.0286451268739770  0.9707266243817159
  0.4693590321868052  0.0225747179907217  0.7036864178122205
  0.1359553768933926 -0.0050711871077102  0.2036766890715508
  0.6284617173121794 -0.0035819254522849  0.4498017375610663
  0.6429430901990785 -0.0037417445164417  0.1886258198657480
  0.1060847822293200  0.0122765818994898  0.7057175763141091
  0.6285693885837630 -0.0016092525287736  0.9290282531244332
  0.8430715713334874 -0.0021762605080636  0.6886782466775471
  0.0120173059395930  0.2842986572156782  0.0617312151011312
  0.2502641108580388  0.6965130044669741  0.0658372339483348
  0.2527927086124997  0.3115872374042568  0.3080350199080507
  0.5037790458958243  0.6873354436313094  0.3109363938901118
  0.5053586693265513  0.3022233355338958  0.0599184529554882
  0.7474861407739278  0.6850814514961721  0.0578255498068992
  0.7503943364675261  0.3119374218191274  0.3116004365101342
  0.0053134196798258  0.6906860077910493  0.3073103296860082
 -0.0038543031373245  0.3119947530240127  0.5638480619504110
  0.2331407611755965  0.7230272264074304  0.5618697359658416
  0.2421317563663536  0.3182547686336125  0.8074831763130150
  0.4946806343396859  0.6931120292321211  0.8127175663771458
  0.4976076475858475  0.3014444689574092  0.5551649720339488
  0.7434231691539319  0.6888623042141205  0.5592049479770144
  0.7448661064640236  0.3083736314777853  0.8103559557596558
 -0.0082239304189046  0.6887428128107991  0.8091201447742389
  0.2413793183609398  0.3672832312970248  0.0523872021243207
  0.0012685034026265  0.6772973710109207  0.0559267324264015
  0.5006504578941237  0.3578546284095928  0.3043828718459624
  0.2492630015388398  0.6466519004501479  0.3058851545455972
  0.7422673676275867  0.3480060891038654  0.0531057519555895
  0.5006816750541385  0.6357553622254131  0.0531110716025769
 -0.0007361784395352  0.3278772161802783  0.3032779620465994
  0.7476737938054673  0.6526441492738606  0.3038344627429002
  0.2435128163480711  0.3196699272406706  0.5570026014009237
  0.0031964559823059  0.6337429460404640  0.5544969731816802
  0.4916250828205058  0.2940308707001175  0.8056626427777195
  0.2449690759443700  0.6869021126791164  0.8035306577582467
  0.7441964234687024  0.3510789978354193  0.5538792223040795
  0.5030397368338553  0.6644061690185316  0.5534335802153055
  0.9908067869212117  0.3602251108009505  0.8032649691778619
  0.7438289413181887  0.6442234729456139  0.8040740108405593
  0.5370311024627471  0.0876153912612413  0.0706596829686140
  0.2603222000376165  0.9089487576823855  0.0970014584874982
  0.2638309481372460  0.1033234279919807  0.2809223330767768
  0.0347540016567890  0.9006868286981204  0.3209781754753131
  0.0616469203367030  0.0842054587916233  0.0677270175885336
  0.7144173151999823  0.8960246510742919  0.0555626063842789
  0.7157081278013556  0.0997305053057917  0.3205221902303114
  0.5320491575160032  0.9062149015799328  0.3067603611585007
  0.5167041467538694  0.0909508711514668  0.5542960281730478
  0.1844904785140148  0.9240507669962066  0.5707816299937222
  0.2104034831326350  0.1072666781957629  0.8177562844696711
 -0.0266906847207619  0.8976472046837264  0.7717162735124106
  0.9795647424535309  0.0963035444533040  0.5986685421932468
  0.7436091624509263  0.9064397687795651  0.5623050173955733
  0.7443645887060878  0.0908336051229108  0.8131519499156226
  0.5159367812677187  0.9033282191978506  0.8229315236389265
 
  0.00000000E+00  0.00000000E+00  0.00000000E+00
  0.00000000E+00  0.00000000E+00  0.00000000E+00
  0.00000000E+00  0.00000000E+00  0.00000000E+00
  0.00000000E+00  0.00000000E+00  0.00000000E+00
  0.00000000E+00  0.00000000E+00  0.00000000E+00
  0.00000000E+00  0.00000000E+00  0.00000000E+00
  0.00000000E+00  0.00000000E+00  0.00000000E+00
  0.00000000E+00  0.00000000E+00  0.00000000E+00
  0.00000000E+00  0.00000000E+00  0.00000000E+00
  0.00000000E+00  0.00000000E+00  0.00000000E+00
  0.00000000E+00  0.00000000E+00  0.00000000E+00
  0.00000000E+00  0.00000000E+00  0.00000000E+00
  0.00000000E+00  0.00000000E+00  0.00000000E+00
  0.00000000E+00  0.00000000E+00  0.00000000E+00
  0.00000000E+00  0.00000000E+00  0.00000000E+00
  0.00000000E+00  0.00000000E+00  0.00000000E+00
  0.00000000E+00  0.00000000E+00  0.00000000E+00
  0.00000000E+00  0.00000000E+00  0.00000000E+00
  0.00000000E+00  0.00000000E+00  0.00000000E+00
  0.00000000E+00  0.00000000E+00  0.00000000E+00
  0.00000000E+00  0.00000000E+00  0.00000000E+00
  0.00000000E+00  0.00000000E+00  0.00000000E+00
  0.00000000E+00  0.00000000E+00  0.00000000E+00
  0.00000000E+00  0.00000000E+00  0.00000000E+00
  0.00000000E+00  0.00000000E+00  0.00000000E+00
  0.00000000E+00  0.00000000E+00  0.00000000E+00
  0.00000000E+00  0.00000000E+00  0.00000000E+00
  0.00000000E+00  0.00000000E+00  0.00000000E+00
  0.00000000E+00  0.00000000E+00  0.00000000E+00
  0.00000000E+00  0.00000000E+00  0.00000000E+00
  0.00000000E+00  0.00000000E+00  0.00000000E+00
  0.00000000E+00  0.00000000E+00  0.00000000E+00
  0.00000000E+00  0.00000000E+00  0.00000000E+00
  0.00000000E+00  0.00000000E+00  0.00000000E+00
  0.00000000E+00  0.00000000E+00  0.00000000E+00
  0.00000000E+00  0.00000000E+00  0.00000000E+00
  0.00000000E+00  0.00000000E+00  0.00000000E+00
  0.00000000E+00  0.00000000E+00  0.00000000E+00
  0.00000000E+00  0.00000000E+00  0.00000000E+00
  0.00000000E+00  0.00000000E+00  0.00000000E+00
  0.00000000E+00  0.00000000E+00  0.00000000E+00
  0.00000000E+00  0.00000000E+00  0.00000000E+00
  0.00000000E+00  0.00000000E+00  0.00000000E+00
  0.00000000E+00  0.00000000E+00  0.00000000E+00
  0.00000000E+00  0.00000000E+00  0.00000000E+00
  0.00000000E+00  0.00000000E+00  0.00000000E+00
  0.00000000E+00  0.00000000E+00  0.00000000E+00
  0.00000000E+00  0.00000000E+00  0.00000000E+00
  0.00000000E+00  0.00000000E+00  0.00000000E+00
  0.00000000E+00  0.00000000E+00  0.00000000E+00
  0.00000000E+00  0.00000000E+00  0.00000000E+00
  0.00000000E+00  0.00000000E+00  0.00000000E+00
  0.00000000E+00  0.00000000E+00  0.00000000E+00
  0.00000000E+00  0.00000000E+00  0.00000000E+00
  0.00000000E+00  0.00000000E+00  0.00000000E+00
  0.00000000E+00  0.00000000E+00  0.00000000E+00
  0.00000000E+00  0.00000000E+00  0.00000000E+00
  0.00000000E+00  0.00000000E+00  0.00000000E+00
