Li6 Mg5 Bi16 S16 O16                    
   1.00000000000000     
    11.2521354706125845    0.0573409785936712   -0.0427044191314350
     0.0485045785625008    9.6041012071462575   -0.0403150277594808
    -0.0425864854897179   -0.0458550783234794   11.1871321406875399
   Li   Mg   Bi   S    O 
     6     5    16    16    16
Direct
  0.8895853520680694  0.0201786437155179  0.4244778864792111
  0.9017273281530291 -0.0140997313953235  0.1598955031385691
  0.2517888101126304  0.0228872480341443  0.4559618901413068
  0.6430451935983498  0.0082374446495047  0.9679641660740176
  0.8746414133444889 -0.0024999724652941  0.9173693167366977
  0.0692519619733842 -0.0350506839807448  0.6570928004650795
  0.3837303596282057 -0.0005498788870440  0.1924233955254518
  0.6145947692375763  0.0012658629884916  0.4298506993843491
  0.1289531405752798 -0.0019312448508930  0.9552984462805560
  0.3871353637737444  0.0006309066116303  0.9231127653516410
  0.6221402862498481 -0.0012480265431580  0.6985408343403874
 -0.0056620033869978  0.3042682253403104  0.0674993900422623
  0.2541467624050932  0.6843638164618633  0.0688640861195697
  0.2470726578116421  0.3102408302817075  0.3155054893712902
  0.4984599539053952  0.6926810105126953  0.3191476965837157
  0.4967162010803090  0.3112713652915823  0.0688433464207369
  0.7567919165349234  0.7048484714728703  0.0662779120942178
  0.7473325051701539  0.3089836454198981  0.3249417820237665
 -0.0058830071335605  0.7082326508663831  0.3190686486717894
 -0.0072796442006209  0.2949669786030243  0.5666194412610880
  0.2393175749677411  0.6989980698938590  0.5692475154480193
  0.2432527458157716  0.3101722692279230  0.8164997735975432
  0.5034498171352337  0.6871081359533452  0.8162045657750799
  0.4972212548279860  0.3130257770319472  0.5679218653414005
  0.7428097108385852  0.6855665689527178  0.5663257554002403
  0.7459782056329629  0.3025467769190255  0.8194992846089924
  0.0025028847869058  0.6905256381360518  0.8208709264948230
  0.2510456305451892  0.3633256738805268  0.0677031150913550
 -0.0037406235753826  0.6463011100112096  0.0714418423043665
  0.4992744664265593  0.3504183010614527  0.3175397243521357
  0.2489266550581045  0.6813740715802847  0.3161280186418821
  0.7484701369272725  0.3355506024867553  0.0665957787719974
  0.4951600784546903  0.6511585477437211  0.0705299231966567
  0.9990200826931337  0.3323892107438428  0.3163044563193137
  0.7439636608845336  0.6527938685379330  0.3209755075820410
  0.2500262972238078  0.2846030371418224  0.5658511325411233
 -0.0102128922805269  0.6750367248737952  0.5743200111294032
  0.4993736886915618  0.3476944588884475  0.8197678867640636
  0.2460504921337955  0.6462166071963212  0.8200738016276793
  0.7465582205505062  0.3628690035421177  0.5704444687277741
  0.4893114443118730  0.6517395250508792  0.5722499961173547
  0.0007692950356075  0.3449954928565048  0.8182704672682573
  0.7432034095771138  0.6486649073105385  0.8215676778506593
  0.4802318528889763  0.0889383656767792  0.0575147930905842
  0.2761947947812473  0.9106312983630023  0.0484660623993756
  0.2761687077619109  0.0991025939877721  0.3009692809665096
 -0.0358539103420581  0.9129449516537429  0.3024570489905279
 -0.0032197015981989  0.0881460315671141  0.0426097409247375
  0.7762379798845512  0.9149580036765136  0.0457263002027342
  0.7447078044704238  0.0977909176563025  0.3503676911281607
  0.4995890786895170  0.9122104155787895  0.3118235457638703
  0.5362929500312025  0.1014215314979981  0.5683211784539680
  0.2180265552004876  0.9062327958216864  0.5803440916172135
  0.2477842101961734  0.0989160221977766  0.8597125677861617
  0.0207217933944139  0.9063358093273863  0.8351216765498861
  0.9750180095961534  0.0871437551493007  0.5629880160308320
  0.7008648024969922  0.8981925575403021  0.5629666441263720
  0.7274368071813531  0.0860102639282255  0.8245316169605807
  0.5151667078028893  0.9108227452290949  0.8267207535506523
 
  0.00000000E+00  0.00000000E+00  0.00000000E+00
  0.00000000E+00  0.00000000E+00  0.00000000E+00
  0.00000000E+00  0.00000000E+00  0.00000000E+00
  0.00000000E+00  0.00000000E+00  0.00000000E+00
  0.00000000E+00  0.00000000E+00  0.00000000E+00
  0.00000000E+00  0.00000000E+00  0.00000000E+00
  0.00000000E+00  0.00000000E+00  0.00000000E+00
  0.00000000E+00  0.00000000E+00  0.00000000E+00
  0.00000000E+00  0.00000000E+00  0.00000000E+00
  0.00000000E+00  0.00000000E+00  0.00000000E+00
  0.00000000E+00  0.00000000E+00  0.00000000E+00
  0.00000000E+00  0.00000000E+00  0.00000000E+00
  0.00000000E+00  0.00000000E+00  0.00000000E+00
  0.00000000E+00  0.00000000E+00  0.00000000E+00
  0.00000000E+00  0.00000000E+00  0.00000000E+00
  0.00000000E+00  0.00000000E+00  0.00000000E+00
  0.00000000E+00  0.00000000E+00  0.00000000E+00
  0.00000000E+00  0.00000000E+00  0.00000000E+00
  0.00000000E+00  0.00000000E+00  0.00000000E+00
  0.00000000E+00  0.00000000E+00  0.00000000E+00
  0.00000000E+00  0.00000000E+00  0.00000000E+00
  0.00000000E+00  0.00000000E+00  0.00000000E+00
  0.00000000E+00  0.00000000E+00  0.00000000E+00
  0.00000000E+00  0.00000000E+00  0.00000000E+00
  0.00000000E+00  0.00000000E+00  0.00000000E+00
  0.00000000E+00  0.00000000E+00  0.00000000E+00
  0.00000000E+00  0.00000000E+00  0.00000000E+00
  0.00000000E+00  0.00000000E+00  0.00000000E+00
  0.00000000E+00  0.00000000E+00  0.00000000E+00
  0.00000000E+00  0.00000000E+00  0.00000000E+00
  0.00000000E+00  0.00000000E+00  0.00000000E+00
  0.00000000E+00  0.00000000E+00  0.00000000E+00
  0.00000000E+00  0.00000000E+00  0.00000000E+00
  0.00000000E+00  0.00000000E+00  0.00000000E+00
  0.00000000E+00  0.00000000E+00  0.00000000E+00
  0.00000000E+00  0.00000000E+00  0.00000000E+00
  0.00000000E+00  0.00000000E+00  0.00000000E+00
  0.00000000E+00  0.00000000E+00  0.00000000E+00
  0.00000000E+00  0.00000000E+00  0.00000000E+00
  0.00000000E+00  0.00000000E+00  0.00000000E+00
  0.00000000E+00  0.00000000E+00  0.00000000E+00
  0.00000000E+00  0.00000000E+00  0.00000000E+00
  0.00000000E+00  0.00000000E+00  0.00000000E+00
  0.00000000E+00  0.00000000E+00  0.00000000E+00
  0.00000000E+00  0.00000000E+00  0.00000000E+00
  0.00000000E+00  0.00000000E+00  0.00000000E+00
  0.00000000E+00  0.00000000E+00  0.00000000E+00
  0.00000000E+00  0.00000000E+00  0.00000000E+00
  0.00000000E+00  0.00000000E+00  0.00000000E+00
  0.00000000E+00  0.00000000E+00  0.00000000E+00
  0.00000000E+00  0.00000000E+00  0.00000000E+00
  0.00000000E+00  0.00000000E+00  0.00000000E+00
  0.00000000E+00  0.00000000E+00  0.00000000E+00
  0.00000000E+00  0.00000000E+00  0.00000000E+00
  0.00000000E+00  0.00000000E+00  0.00000000E+00
  0.00000000E+00  0.00000000E+00  0.00000000E+00
  0.00000000E+00  0.00000000E+00  0.00000000E+00
  0.00000000E+00  0.00000000E+00  0.00000000E+00
  0.00000000E+00  0.00000000E+00  0.00000000E+00
