Li Mg Bi  S  O 
 1.0000000000000000
    11.1784999999999997    0.0000000000000000    0.0000000000000000
     0.0000000000000000    9.5746000000000002    0.0000000000000000
     0.0000000000000000    0.0000000000000000   11.1823999999999995
 Li  Mg  Bi  S   O  
  12   2  16  16  16
Direct
  0.3434073252467914 -0.0055984661374418  0.4315022085892677
  0.6227778245100630  0.9983781644649504  0.4446679473447920
  0.9030209771210613 -0.0044244895503161  0.4399962694582162
  0.8715717848143909  0.0012223364827061  0.1868153172526009
  0.1270803447253984  0.9984530929157874  0.9298660320672332
  0.3718383524857689  0.0032810727513095  0.9538316903870412
  0.1296596506432094  1.0028430555087839  0.6689898434150010
  0.3775064496401808  0.0005405914945531  0.6915708163025422
  0.6244122640672706  1.0027042666991253  0.9298968605998542
  0.8782149088761072  0.0017922602122764  0.9375921655780635
  0.6233514782343209  1.0007890863941094  0.6855502585338837
  0.8746915594824820  0.0013935212267143  0.6895843649344726
  0.1291109618997592  0.9982669285695402  0.1923245332856408
  0.6162266350540179  1.0001654019977457  0.1871737599079459
  0.0015177572967222  0.3060053414173254  0.0644053758030115
  0.2465733912228767  0.6979409804398972  0.0631558006733850
  0.2482408780141108  0.2977392977775450  0.3163300943366275
  0.5019187572499534  0.6965665287287961  0.3152912574393313
  0.5005126993285877  0.3027897778439664  0.0610261376218290
  0.7477212784311646  0.6964145852270912  0.0638090464187645
  0.7476134942816568  0.3057328509568125  0.3115198240349413
  0.9987599548630800  0.6977916072536389  0.3121276444785998
 -0.0031464676436302  0.2944651988075602  0.5657365997333834
  0.2520768311034124  0.7044665368187140  0.5661389381477514
  0.2501108870818321  0.2972215259396348  0.8131620949864090
  0.4984979303387978  0.7059334396888914  0.8126517232177710
  0.4998341487975448  0.2965305608431680  0.5645412791844644
  0.7498120194320755  0.7067016989529247  0.5636878569469495
  0.7497873149533074  0.2957401554614152  0.8121734954800740
  0.9989083749470610  0.7060948481382212  0.8134693222474674
  0.2496023637428518  0.3419602449870928  0.0666348058004693
 -0.0011258366882842  0.6478147213059574  0.0648692853267846
  0.5017625520725014  0.3383082329381494  0.3125222487821521
  0.2476600351015569  0.6828701605322931  0.3148106762842919
  0.7504987410698312  0.3494815869955072  0.0621332299062200
  0.4978165741935086  0.6657589552132150  0.0666507251337753
  0.9992532144781421  0.3403290422851838  0.3142168523524775
  0.7500504675526372  0.6496292735459329  0.3122962791968566
  0.2507081640845331  0.3358564964341074  0.5633833208609825
 -0.0015953090702606  0.6684755498246239  0.5640014291277903
  0.5001973047015217  0.3477577477957679  0.8144531813946799
  0.2485707427681954  0.6529974696968941  0.8153808374864197
  0.7502548923174190  0.3453456925865208  0.5634782073128858
  0.4998374763920220  0.6521129379084866  0.5632577374716974
  1.0007700514281908  0.3446511672195567  0.8144126285018977
  0.7477196792267087  0.6593581341241423  0.8155872940510849
  0.5175440423529306  0.0846547237636608  0.0547715190573051
  0.2281095147788998  0.9155410825171317  0.0562756724216609
  0.2421924324892655  0.0843375060216768  0.3083860485412125
 -0.0091378093419956  0.9157336200599272  0.2911672358269171
  1.0050517518795719  0.0839248928849003  0.0706979544786367
  0.7433661349181321  0.9192983404495538  0.0702776544331489
  0.7416673560162453  0.0857497391643205  0.2977028419782765
  0.5241836026581026  0.9116623800854086  0.3194506648843769
  0.5050809502768278  0.0803246403128444  0.5684269881970011
  0.2647470052720084  0.9176404766060039  0.5786396625143787
  0.2528513061784722  0.0801900662374805  0.8173494528524851
 -0.0021960976747591  0.9233231496076135  0.8189443751269485
  0.9888321253391750  0.0806674654316191  0.5766364179198836
  0.7494944388738704  0.9238106522737214  0.5627289733154007
  0.7511635975713296  0.0775731465134299  0.8148277952047306
  0.5025140642146729  0.9231750475242845  0.8129165187315063
