Li Mg Bi  S  O 
 1.0000000000000000
    11.1784999999999997    0.0000000000000000    0.0000000000000000
     0.0000000000000000    9.5746000000000002    0.0000000000000000
     0.0000000000000000    0.0000000000000000   11.1823999999999995
 Li  Mg  Bi  S   O  
   2   7  16  16  16
Direct
  0.8997394711837661 -0.0137850112242320  0.4388181658593061
  0.7772612780883893  0.0076535006267645  0.6635874965416200
  0.4019562608023535 -0.0330644258718536  0.1536637636912583
  0.6223715741001062  0.9898084246445769  0.4072284983195862
  0.8649369673201771 -0.0022478688856627  0.1646379781116938
  0.1458721217128161  0.9891920508634160  0.9512083717862510
  0.1246227093663591  0.9935917751194286  0.6789845082804523
  0.4019466660366736 -0.0091494783905500  0.6848168080092570
  0.6266169482228561  0.9910623414178007  0.9271464037620618
  0.0030985343052017  0.2950437880881234  0.0620298569389343
  0.2549394938620853  0.6663633051302068  0.0602542836367748
  0.2597343955878600  0.2535276276329349  0.2962653951713687
  0.5010192417719381  0.6746809199475854  0.3053432699519780
  0.5029641043603329  0.2943152243461559  0.0514747566802022
  0.7526511849008389  0.6901650228319085  0.0545017628574607
  0.7527809897960075  0.3037275022782088  0.3034963631139357
  0.9997947415699767  0.6937539243778283  0.3028240209509774
  0.0044682589147700  0.2932649279930658  0.5568882287141292
  0.2531812313128567  0.6864554195499101  0.5607721304433125
  0.2455237065456916  0.3102339033689904  0.8113919823970792
  0.5068580675396628  0.6817909462586815  0.8037486348511322
  0.5032171709570435  0.2915119486743807  0.5507342545456430
  0.7544970546888378  0.6895672183626145  0.5457607579281721
  0.7502159197939380  0.3019269086969635  0.8063163615140488
  1.0090054625430149  0.6861817317033118  0.8113407230134040
  0.2475760174747348  0.3317543450708132  0.0581551184194120
 -0.0004618417124307  0.6491336389483908  0.0633887179910923
  0.4939835605840743  0.3295465004620348  0.3011745250675612
  0.2558072975213968  0.6697945963877244  0.3084629476952972
  0.7464219611600906  0.3266370313200081  0.0587386318663103
  0.5142962192064774  0.6380061276193096  0.0576247641957241
  1.0024479119406329  0.3242364888351502  0.3115043952806341
  0.7474422927014811  0.6259951676087510  0.3091032539211507
  0.2620274959776545  0.3316452963957709  0.5725566083235820
  0.0034111524930358  0.6654190067450088  0.5572550400813531
  0.5046074121419311  0.3427526179725061  0.8121948219084719
  0.2430380714764931  0.6213725491831465  0.8141442379879472
  0.7505836308381156  0.3360603508220827  0.5547976861868791
  0.5037531415208709  0.6542439924390667  0.5583604112057026
  0.9985664675191110  0.3400243176926768  0.8095961531606527
  0.7548302149175237  0.6657489899630811  0.8056711649763192
  0.5076256595039608  0.0752706729282448  0.0424978718039228
  0.2753351628952516  0.8811462449183463  0.0365004103369390
  0.2823217670080969  0.0547246955552704  0.2545991709409801
 -0.0500770734821938  0.8974781915392864  0.2939539140836013
  1.0076577702491119  0.0776350074351578  0.0574207001524939
  0.7469224004499487  0.9081179914545413  0.0495763483773064
  0.7546887446179195  0.0820794235651119  0.3006613579541429
  0.5213485559706407  0.8908759469210296  0.2834713971805766
  0.5104296954522124  0.0729723633484777  0.5457319260106371
  0.2633968095764224  0.8977661068822850  0.6052125535378057
  0.2420626687683510  0.0853403396626249  0.7977204096495221
  0.0517250578376738  0.8974822585993654  0.8189059837434646
  0.9972979508949513  0.0780628886208728  0.5744714328014605
  0.7491961980780041  0.9067540840745084  0.5196714753388136
  0.7274382870268287  0.0888729925146696  0.8055283862469941
  0.5093229761309381  0.9017954159977594  0.8058867808232596
