Li Mg Bi  S  O 
 1.0000000000000000
    11.1784999999999997    0.0000000000000000    0.0000000000000000
     0.0000000000000000    9.5746000000000002    0.0000000000000000
     0.0000000000000000    0.0000000000000000   11.1823999999999995
 Li  Mg  Bi  S   O  
  12   2  16  16  16
Direct
  0.3557335229791478  0.0009710736091609  0.4359680331608149
  0.3809917840722920  0.0009600074140381  0.1864184717735514
  0.6253097332805443  0.9999398679911673  0.4374348963002225
  0.8945310167904565 -0.0003011161503764  0.4360083000265450
  0.6250241616092818  1.0000880934217842  0.1868299572791067
  0.8694903263254367 -0.0012647534800033  0.1860778658662959
  0.3557335229791493  0.0009710736090536  0.9359680331608726
  0.3809917840723083  0.0009600074140365  0.6864184717735327
  0.6253097332805485  0.9999398679911349  0.9374348963002668
  0.8945310167904125 -0.0003011161503344  0.9360083000266028
  0.6250241616092537  1.0000880934218164  0.6868299572791363
  0.8694903263254289 -0.0012647534800227  0.6860778658663137
  0.1255139260636869  0.9997536843130583  0.1861663723417089
  0.1255139260635189  0.9997536843130548  0.6861663723418028
 -0.0012461460111836  0.3006498739631556  0.0636398759069763
  0.2531842404717607  0.6985242801370416  0.0629288951120341
  0.2503810982303630  0.3029166752876474  0.3096365904652443
  0.5015273287243833  0.7062810336418807  0.3120635494674484
  0.4994094510676939  0.2951313862919182  0.0614120379555975
  0.7498133716805419  0.7050818046812924  0.0613311796458292
  0.7483773988958806  0.2939506486300330  0.3125314106686948
  0.9992095319705425  0.6979541102823569  0.3093687924325682
 -0.0012461460111728  0.3006498739632223  0.5636398759069526
  0.2531842404717486  0.6985242801369710  0.5629288951120186
  0.2503810982303315  0.3029166752881881  0.8096365904653515
  0.5015273287243537  0.7062810336404752  0.8120635494674285
  0.4994094510676905  0.2951313862932448  0.5614120379556270
  0.7498133716805543  0.7050818046800184  0.5613311796457853
  0.7483773988958764  0.2939506486308813  0.8125314106686837
  0.9992095319705594  0.6979541102822592  0.8093687924325532
  0.2491539293071393  0.3418908200827491  0.0624181554815959
  0.0004493866668323  0.6604451328572691  0.0615369197692480
  0.4996287267515381  0.3444840578845222  0.3120974740236921
  0.2486912897215031  0.6598718406755217  0.3118375157179937
  0.7504792587731522  0.3427840835850298  0.0626948997615921
  0.4997682997630353  0.6572777670572929  0.0622517839878146
  1.0002285818554331  0.3375812011292927  0.3139000298838541
  0.7502864594110823  0.6568770400753355  0.3121990834252130
  0.2491539293071224  0.3418908200827296  0.5624181554816176
  0.0004493866668615  0.6604451328573152  0.5615369197692368
  0.4996287267515648  0.3444840578845246  0.8120974740237422
  0.2486912897214523  0.6598718406755504  0.8118375157180104
  0.7504792587731554  0.3427840835850162  0.5626948997615333
  0.4997682997630050  0.6572777670572910  0.5622517839878232
  1.0002285818554275  0.3375812011292506  0.8139000298838727
  0.7502864594111182  0.6568770400753080  0.8121990834252188
  0.5005435153489025  0.0776696396086835  0.0617066064409153
  0.2562072013459680  0.9161504102206428  0.0790096565764836
  0.2546568979403817  0.0857930209485867  0.2929431370397644
 -0.0050240032663802  0.9155169605104111  0.2928795349211016
  0.9955645902213650  0.0830912691179953  0.0788270328572528
  0.7492732338825864  0.9227574418028867  0.0619058790414424
  0.7488575716463963  0.0763754043638650  0.3117804561001355
  0.5006039084104140  0.9236971217125378  0.3118117594068101
  0.5005435153489531  0.0776696396074917  0.5617066064410655
  0.2562072013459857  0.9161504102210263  0.5790096565764781
  0.2546568979404601  0.0857930209480915  0.7929431370397284
 -0.0050240032663708  0.9155169605105601  0.7928795349211080
  0.9955645902213710  0.0830912691178223  0.5788270328573485
  0.7492732338826033  0.9227574418043903  0.5619058790414287
  0.7488575716462808  0.0763754043630539  0.8117804560999650
  0.5006039084103358  0.9236971217137671  0.8118117594065902
