Li Mg Bi  S  O 
 1.0000000000000000
    11.1784999999999997    0.0000000000000000    0.0000000000000000
     0.0000000000000000    9.5746000000000002    0.0000000000000000
     0.0000000000000000    0.0000000000000000   11.1823999999999995
 Li  Mg  Bi  S   O  
   4   6  16  16  16
Direct
  0.3727481222684859 -0.0009408293969693  0.3424545087945587
  0.3675255211896710  0.0083284242531128  1.0156839881611823
  0.3704823103798301  0.0014548474077627  0.6845143693045217
  0.8717882483892074  0.0017126213715056  0.6859955163507513
  0.1047562453211900  1.0006103633240049  0.1851211356825737
  0.8723247402732696 -0.0007184826859450  0.4281086055658864
  0.6377193308758653  1.0016068663963151  0.1820376680614973
  0.1131107734207874  1.0031551506985665  0.6858359930224530
  0.8719524090403431  0.0008223531240747  0.9442753108855615
  0.6299269854033891  1.0004953532308476  0.6874723026210189
  0.0012960255651302  0.3082272435767837  0.0582954943533988
  0.2453071751386920  0.6999746906240436  0.0635279303449749
  0.2468281411185477  0.3038900570450597  0.3067819274251181
  0.5004951338682516  0.6969682922303873  0.3095190727516371
  0.4982794836640546  0.3078098023884374  0.0638560141470286
  0.7439610703051394  0.6926327740432763  0.0617391797190185
  0.7453989068835877  0.3046363677350161  0.3124069384908551
  0.9987821767714231  0.6922712756440309  0.3130356511935726
 -0.0032927749206719  0.3106793444935709  0.5594506208289478
  0.2458730700211521  0.6959176885840110  0.5671130918848037
  0.2477494251671768  0.3104591294252606  0.8051209231076953
  0.4966477867556985  0.6998275386302788  0.8082044094456294
  0.4977791919188498  0.3012706721384559  0.5654959467728444
  0.7452268871243680  0.6922223358466874  0.5614276868673538
  0.7453534413248776  0.3094816086142305  0.8124802716316694
  0.9953906441695699  0.6945460747478232  0.8138260625678393
  0.2504800875914606  0.3426456390783172  0.0626301741300403
 -0.0046896147796557  0.6584327809255188  0.0599808360790901
  0.5016215368238987  0.3373423452648207  0.3144968764022500
  0.2453968651146112  0.6620009320067101  0.3098490590795041
  0.7486034055345951  0.3456776283373235  0.0593697420399206
  0.4964996116190591  0.6586174581658751  0.0608047495291834
  0.9922422808908142  0.3410967721939080  0.3127994075145646
  0.7473423328316354  0.6545698752235255  0.3133787533459966
  0.2453008141201456  0.3464026666781673  0.5587931201964469
 -0.0063878847536209  0.6501089865137111  0.5625945033143748
  0.4984228805098171  0.3449522827829273  0.8119612797899610
  0.2448245117482473  0.6547056320591910  0.8120951216430409
  0.7510152400647467  0.3488243994833122  0.5663475511533920
  0.4968085144268434  0.6590680885818681  0.5557646717132793
  0.9966911626678131  0.3518397597444695  0.8144738009267970
  0.7459316663614620  0.6522732746715653  0.8106513602206777
  0.5123238935304998  0.0951229746473700  0.0763759495741231
  0.2305778707063712  0.9129495801485428  0.0759805650271532
  0.2325582022568254  0.0915788185448340  0.2875563529718564
 -0.0087924443850380  0.9111485405102139  0.3115626384185157
  0.9917446268799763  0.0895078216083629  0.0593297119066458
  0.7526138466340672  0.9116839109462804  0.0588513869009285
  0.7531848058796707  0.0858230364547230  0.3107352530778557
  0.5130427642109205  0.9094012969955194  0.2865286463121495
  0.5066012528917962  0.0894566136745163  0.5858677773357763
  0.2383496166780499  0.9072192056387430  0.5908656708091135
  0.2370876630970950  0.0991011515041348  0.7809323125306400
 -0.0186453059118624  0.9180914213928045  0.8015312361002714
  0.9811881028194470  0.0864493145387022  0.5695503882016703
  0.7613504530459476  0.9153340007770073  0.5717144301224073
  0.7611113474507151  0.0851710122792472  0.8029700135876839
  0.5021654614212154  0.9116929619133358  0.7844721323092142
