Li4 Mg6 Bi16 S16 O16                    
   1.00000000000000     
    11.1864750534332504   -0.2566961809940814   -0.0325371361432946
    -0.2169639691700245    9.5717075627103654    0.1898020294641265
    -0.0325390601709895    0.2297801183062318   11.2049043653413634
   Li   Mg   Bi   S    O 
     4     6    16    16    16
Direct
  0.4131166253442327 -0.0274028599157846  0.1585018347257097
  0.3253298725145766 -0.0354700043505657  0.8917532066825281
  0.6079448325665182  0.0035551395589776  0.9236114181911080
  0.4199929522081962 -0.0276966433503166  0.6481395678561315
  0.6194698283369635 -0.0095822821789672  0.4386175907012669
  0.8937523296943478  0.0448215498030174  0.4218267672534024
  0.6722140237918103  0.0053793894702367  0.1765624853180993
  0.1130002258649510  0.0154536368489042  0.6850578984497997
  0.8855742551609728 -0.0074038573924802  0.9426136811318381
  0.8424889756278693  0.0122854855504092  0.6818671013602737
  0.0076687209729975  0.3096943047224269  0.0732698982480422
  0.2551950533912162  0.6852478851379370  0.0675545469037173
  0.2550407315191560  0.1802582901702954  0.3214420487140514
  0.5035108854263390  0.6819087968589100  0.3113854003092986
  0.5046394029897966  0.2991515872391068  0.0687473709448157
  0.7535896981245606  0.6856194384522266  0.0619858443407026
  0.7451440001180767  0.3300641111419848  0.3190608156483783
  0.0155543319589253  0.7395695969431392  0.3099786842060876
  0.0081551388501674  0.3388603418138637  0.5668180716542828
  0.2508110708093006  0.7178023451635260  0.5653284663382029
  0.2467439239776295  0.2972722564530090  0.8261231056492119
  0.4927709489245292  0.7028613602673869  0.8180837219574373
  0.5003089547811324  0.2980651615878155  0.5641577378313362
  0.7539788630493400  0.6956939360434365  0.5566543309972359
  0.7517116270594216  0.3130464292026222  0.8218601056377032
 -0.0032126629097559  0.6957216500028293  0.8129741907858533
  0.2512022921362016  0.2962376940008141  0.0896565489500672
  0.0023811514284670  0.7370930328038956  0.0503190814936774
  0.4819470266664934  0.3454072710795136  0.3268728063608385
  0.2529780839926642  0.6571626317265298  0.3153110695432005
  0.7509457786094478  0.3604003613601170  0.0747002809304902
  0.5072915553001957  0.6318807302013205  0.0628783982455004
  0.9827249104340663  0.3086855956901237  0.3308333416622303
  0.7636210192877960  0.6476376101707316  0.3153407755141200
  0.2443380180144367  0.3265195685510301  0.5798310635314483
  0.0036631606717219  0.6632327674211137  0.5578598439215351
  0.4973144246072302  0.3238821422778966  0.8259313160650553
  0.2538137285998893  0.6413300614108077  0.8099907498250977
  0.7440091205655681  0.3664058094549568  0.5761815261700624
  0.5094187307501485  0.7228459058639368  0.5566183833183492
 -0.0051194615941324  0.3747362393759407  0.8233465740899059
  0.7542649806254071  0.6575084975112918  0.8112822143886395
  0.5452503178844349  0.0872171721227297  0.0752870525669472
  0.3086730759878690  0.8861693031210545  0.0460267278301102
  0.3355875740782621  0.0067671273277520  0.3002875120772348
  0.0100303399735325  0.9439415082546977  0.3400926744571107
  0.9690200783802235  0.1080164176350323  0.0525077589108934
  0.7440650955819320  0.9078424440666667  0.0409690886308488
  0.7406261046508109  0.0997150068663901  0.3268708754038698
  0.5680598615995197  0.8913244981059243  0.2901771732909597
  0.5241803413132780  0.0885569414619214  0.5517151157642590
  0.2453766861088725  0.9244145088233968  0.6034571521593060
  0.2153497002208323  0.0861763297107316  0.8139506203863651
 -0.0311854175169345  0.9206937438791535  0.7855688856901770
  0.9753374685263843  0.1097534486228406  0.5848416552893144
  0.7709259131145147  0.9259634133943355  0.5356892044986618
  0.7684286897431150  0.0917906448298737  0.8237711511334828
  0.4809850401044817  0.9159645276335140  0.8167174860637584
 
  0.00000000E+00  0.00000000E+00  0.00000000E+00
  0.00000000E+00  0.00000000E+00  0.00000000E+00
  0.00000000E+00  0.00000000E+00  0.00000000E+00
  0.00000000E+00  0.00000000E+00  0.00000000E+00
  0.00000000E+00  0.00000000E+00  0.00000000E+00
  0.00000000E+00  0.00000000E+00  0.00000000E+00
  0.00000000E+00  0.00000000E+00  0.00000000E+00
  0.00000000E+00  0.00000000E+00  0.00000000E+00
  0.00000000E+00  0.00000000E+00  0.00000000E+00
  0.00000000E+00  0.00000000E+00  0.00000000E+00
  0.00000000E+00  0.00000000E+00  0.00000000E+00
  0.00000000E+00  0.00000000E+00  0.00000000E+00
  0.00000000E+00  0.00000000E+00  0.00000000E+00
  0.00000000E+00  0.00000000E+00  0.00000000E+00
  0.00000000E+00  0.00000000E+00  0.00000000E+00
  0.00000000E+00  0.00000000E+00  0.00000000E+00
  0.00000000E+00  0.00000000E+00  0.00000000E+00
  0.00000000E+00  0.00000000E+00  0.00000000E+00
  0.00000000E+00  0.00000000E+00  0.00000000E+00
  0.00000000E+00  0.00000000E+00  0.00000000E+00
  0.00000000E+00  0.00000000E+00  0.00000000E+00
  0.00000000E+00  0.00000000E+00  0.00000000E+00
  0.00000000E+00  0.00000000E+00  0.00000000E+00
  0.00000000E+00  0.00000000E+00  0.00000000E+00
  0.00000000E+00  0.00000000E+00  0.00000000E+00
  0.00000000E+00  0.00000000E+00  0.00000000E+00
  0.00000000E+00  0.00000000E+00  0.00000000E+00
  0.00000000E+00  0.00000000E+00  0.00000000E+00
  0.00000000E+00  0.00000000E+00  0.00000000E+00
  0.00000000E+00  0.00000000E+00  0.00000000E+00
  0.00000000E+00  0.00000000E+00  0.00000000E+00
  0.00000000E+00  0.00000000E+00  0.00000000E+00
  0.00000000E+00  0.00000000E+00  0.00000000E+00
  0.00000000E+00  0.00000000E+00  0.00000000E+00
  0.00000000E+00  0.00000000E+00  0.00000000E+00
  0.00000000E+00  0.00000000E+00  0.00000000E+00
  0.00000000E+00  0.00000000E+00  0.00000000E+00
  0.00000000E+00  0.00000000E+00  0.00000000E+00
  0.00000000E+00  0.00000000E+00  0.00000000E+00
  0.00000000E+00  0.00000000E+00  0.00000000E+00
  0.00000000E+00  0.00000000E+00  0.00000000E+00
  0.00000000E+00  0.00000000E+00  0.00000000E+00
  0.00000000E+00  0.00000000E+00  0.00000000E+00
  0.00000000E+00  0.00000000E+00  0.00000000E+00
  0.00000000E+00  0.00000000E+00  0.00000000E+00
  0.00000000E+00  0.00000000E+00  0.00000000E+00
  0.00000000E+00  0.00000000E+00  0.00000000E+00
  0.00000000E+00  0.00000000E+00  0.00000000E+00
  0.00000000E+00  0.00000000E+00  0.00000000E+00
  0.00000000E+00  0.00000000E+00  0.00000000E+00
  0.00000000E+00  0.00000000E+00  0.00000000E+00
  0.00000000E+00  0.00000000E+00  0.00000000E+00
  0.00000000E+00  0.00000000E+00  0.00000000E+00
  0.00000000E+00  0.00000000E+00  0.00000000E+00
  0.00000000E+00  0.00000000E+00  0.00000000E+00
  0.00000000E+00  0.00000000E+00  0.00000000E+00
  0.00000000E+00  0.00000000E+00  0.00000000E+00
  0.00000000E+00  0.00000000E+00  0.00000000E+00
