Li Mg Bi  S  O 
 1.0000000000000000
    11.1784999999999997    0.0000000000000000    0.0000000000000000
     0.0000000000000000    9.5746000000000002    0.0000000000000000
     0.0000000000000000    0.0000000000000000   11.1823999999999995
 Li  Mg  Bi  S   O  
   2   7  16  16  16
Direct
  0.4048584904300649 -0.0266501221135674  0.4987412484992837
  0.8439782241293682  0.0006203574497590  0.1926838520039506
  0.1075509356919987  0.9990628838053757  0.1790583359225794
  0.3711016860080507  0.0069072003606472  0.1886130786755298
  0.8791786737771075 -0.0043828945449489  0.4587868170929541
  0.3656099234898682 -0.0079244563997465  0.9125784474193827
  0.1228586798913567  0.9988024088899271  0.6881355076813256
  0.8869443182748380  0.0045893855678517  0.9227132319625675
  0.6374368380790960  0.9924387151613742  0.7005764525280556
 -0.0012948603988045  0.3113415754173308  0.0655518303597312
  0.2478225018137096  0.6801204352717631  0.0695455978921729
  0.2580013284789346  0.3185401781153099  0.3138262363398310
  0.4926992561441899  0.7112833859930049  0.3180362431600707
  0.4917940846503404  0.3038623228493282  0.0603953681428586
  0.7546792017469058  0.7023532622339475  0.0642593334997797
  0.7490737630346425  0.3010488117607296  0.3146375008338150
  0.9940984436428519  0.6914806675104331  0.3175926895213054
  0.0028150295738474  0.3029974926527586  0.5591918893178467
  0.2509292260488177  0.6961273913873565  0.5691795213174665
  0.2516962388140079  0.3028481817423533  0.8073294361439406
  0.5030936338602451  0.6878268756663455  0.8181752412409463
  0.5078387087399246  0.2924226392333460  0.5657430143500037
  0.7464395868658760  0.6873524651594551  0.5644422060148022
  0.7495797000918220  0.3059595936984456  0.8177374809898182
  0.9999324387111654  0.6928627625016135  0.8148872624127627
  0.2524873102571443  0.3701981797178822  0.0570056575555886
 -0.0033694099084105  0.6448075494602261  0.0690044503319630
  0.5006162973422362  0.3239155315057948  0.3107398340476377
  0.2490783150450090  0.6491599099273974  0.3160363248328327
  0.7506851614438840  0.3360722766503085  0.0623888406134186
  0.4965963954488899  0.6647273020006248  0.0681920992904713
  1.0021301927297501  0.3572374949783887  0.3125177389470308
  0.7496954833031517  0.6623469208858018  0.3179207998938079
  0.2550021358283796  0.3303848465400828  0.5640672725135264
 -0.0006823086801052  0.6602719979664541  0.5636693621762073
  0.5025093012675493  0.3455142659932987  0.8128412654976637
  0.2435827531846582  0.6581282538833899  0.8160062201444425
  0.7542405836490191  0.3458723531231953  0.5678267839583149
  0.4994321882431406  0.6628767519914127  0.5656909800639774
  1.0015045259059407  0.3426659593248521  0.8125681300378291
  0.7476550884962641  0.6544526800411523  0.8170580501700475
  0.4437518786232176  0.0949543358741764  0.0464631887415527
  0.2504029098593226  0.9066898030992108  0.0790569720560631
  0.2354575078207505  0.1095469838441670  0.2608700762086328
 -0.0142054227199531  0.9123270125326253  0.2993300003126917
  0.9880443232716359  0.0894396078505214  0.0668819022051909
  0.7903999931792726  0.9100374842883592  0.0488805300720526
  0.7899710675922983  0.0951818812098044  0.3326851370223858
  0.4530447959570132  0.9191395907192116  0.3249976048149926
  0.5209058959670110  0.0813282167247828  0.5884161974687439
  0.2466069694802134  0.9095700876557746  0.5793518546636336
  0.2404207742904087  0.0838049537868113  0.8118957673552174
  0.0049519222852473  0.9120666019552877  0.8099484726851325
  1.0039188699828103  0.0849214612215343  0.5661397209271525
  0.7551292673711141  0.9053435692777441  0.5721751177296127
  0.7579310362776440  0.0869869315106998  0.8116026015961589
  0.5025463165845365  0.9066292571407381  0.8137480845734801
