data_245965-ICSD
#?2014 by Fachinformationszentrum Karlsruhe, and the U.S. Secretary of 
#Commerce on behalf of the United States.  All rights reserved.
_database_code_ICSD                245965
_audit_creation_date               2009/02/01
_chemical_name_systematic          'Cesium Lithium Difluoride'
_chemical_formula_structural       'Cs Li F2'
_chemical_formula_sum              'Cs1 F2 Li1'
_publ_section_title
;
Ab initio prediction of the low-temperature phase diagrams in the 
systems CsX - LiX (X = F, Cl, Br, I)
;
loop_
_citation_id
_citation_journal_abbrev
_citation_year
_citation_journal_volume
_citation_journal_issue
_citation_page_first
_citation_page_last
_citation_journal_id_ASTM
primary 'Solid State Sciences' 2008 10 6 804 813 SSSCFJ
_publ_author_name
;
Pentin, I.V.;Schoen, J.C.;Jansen, M.
;
_cell_length_a                     6.15
_cell_length_b                     11.91
_cell_length_c                     8.37
_cell_angle_alpha                  90.
_cell_angle_beta                   90.81
_cell_angle_gamma                  90.
_cell_volume                       613.01
_cell_formula_units_Z              8
_symmetry_space_group_name_H-M     'C 1 2/c 1'
_symmetry_Int_Tables_number        15
loop_
_symmetry_equiv_pos_site_id
_symmetry_equiv_pos_as_xyz
  1	'x, -y, z+.5'
  2	'-x, -y, -z'
  3	'-x, y, -z+.5'
  4	'x, y, z'
  5	'x+.5, -y+.5, z+.5'
  6	'-x+.5, -y+.5, -z'
  7	'-x+.5, y+.5, -z+.5'
  8	'x+.5, y+.5, z'
loop_
_atom_type_symbol
_atom_type_oxidation_number
Cs1+	1
F1-	-1
Li1+	1
loop_
_atom_site_label
_atom_site_type_symbol
_atom_site_symmetry_multiplicity
_atom_site_Wyckoff_symbol
_atom_site_fract_x
_atom_site_fract_y
_atom_site_fract_z
_atom_site_occupancy
_atom_site_attached_hydrogens
Cs1 Cs1+ 8 f 0.25280 0.40890 0.25 1. 0 
Li1 Li1+ 8 f 0.25 0.20900 0.36200 1. 0 
F1 F1- 8 f 0.24400 0.35700 0.42300 1. 0 
F2 F1- 4 e 0 0.15100 0.25 1. 0 
F3 F1- 4 e 0 0.66300 0.25 1. 0 

#End of data_245965-ICSD


