data_188520-ICSD
#?2014 by Fachinformationszentrum Karlsruhe, and the U.S. Secretary of 
#Commerce on behalf of the United States.  All rights reserved.
_database_code_ICSD                188520
_audit_creation_date               2014/02/01
_chemical_name_systematic          'Lithium Copper Oxide (1/1/1)'
_chemical_formula_structural       'Li Cu O'
_chemical_formula_sum              'Cu1 Li1 O1'
_publ_section_title
;
Electronic properties and structural phase transition in A4 (M4 O4) 
(A=Li, Na, K and Rb; M=Ag and Cu): A first principles study
;
loop_
_citation_id
_citation_journal_abbrev
_citation_year
_citation_journal_volume
_citation_page_first
_citation_page_last
_citation_journal_id_ASTM
primary 'Solid State Communications' 2013 155 62 68 SSCOA4
2 'Zeitschrift fuer Anorganische und Allgemeine Chemie (1950) (DE)'
 1985 524 7 16 ZAACAB
_publ_author_name
;
Umamaheswari, R.;Yogeswari, M.;Kalpana, G.
;
_cell_length_a                     8.538
_cell_length_b                     8.538
_cell_length_c                     3.799
_cell_angle_alpha                  90.
_cell_angle_beta                   90.
_cell_angle_gamma                  90.
_cell_volume                       276.94
_cell_formula_units_Z              8
_symmetry_space_group_name_H-M     'I -4 m 2'
_symmetry_Int_Tables_number        119
loop_
_symmetry_equiv_pos_site_id
_symmetry_equiv_pos_as_xyz
  1	'y, x, -z'
  2	'-y, -x, -z'
  3	'y, -x, -z'
  4	'-y, x, -z'
  5	'x, -y, z'
  6	'-x, y, z'
  7	'-x, -y, z'
  8	'x, y, z'
  9	'y+.5, x+.5, -z+.5'
 10	'-y+.5, -x+.5, -z+.5'
 11	'y+.5, -x+.5, -z+.5'
 12	'-y+.5, x+.5, -z+.5'
 13	'x+.5, -y+.5, z+.5'
 14	'-x+.5, y+.5, z+.5'
 15	'-x+.5, -y+.5, z+.5'
 16	'x+.5, y+.5, z+.5'
loop_
_atom_type_symbol
_atom_type_oxidation_number
Cu1+	1
Li1+	1
O2-	-2
loop_
_atom_site_label
_atom_site_type_symbol
_atom_site_symmetry_multiplicity
_atom_site_Wyckoff_symbol
_atom_site_fract_x
_atom_site_fract_y
_atom_site_fract_z
_atom_site_occupancy
_atom_site_attached_hydrogens
Li1 Li1+ 8 i 0.141 0 0.793 1. 0 
Cu1 Cu1+ 8 h 0.343 0.843 0.250 1. 0 
O1 O2- 8 i 0.806 0 0.251 1. 0 

#End of data_188520-ICSD


