data_159177-ICSD
#?2014 by Fachinformationszentrum Karlsruhe, and the U.S. Secretary of 
#Commerce on behalf of the United States.  All rights reserved.
_database_code_ICSD                159177
_audit_creation_date               2008/08/01
_chemical_name_systematic          'Caesium Magnesium Hydride'
_chemical_formula_structural       'Cs Mg H3'
_chemical_formula_sum              'H3 Cs1 Mg1'
_publ_section_title
;
First principle investigations of the M Mg H3 (M = Li, Na, K, Rb, Cs) 
series
;
loop_
_citation_id
_citation_journal_abbrev
_citation_year
_citation_journal_volume
_citation_page_first
_citation_page_last
_citation_journal_id_ASTM
primary 'Journal of Alloys and Compounds' 2008 450 327 337 JALCEU
_publ_author_name
;
Vajeeston, P.;Ravindran, P.;Kjekshus, A.;Fjellvag, H.
;
_cell_length_a                     9.9922
_cell_length_b                     6.1405
_cell_length_c                     8.5768
_cell_angle_alpha                  90.
_cell_angle_beta                   90.
_cell_angle_gamma                  90.
_cell_volume                       526.25
_cell_formula_units_Z              6
_symmetry_space_group_name_H-M     'P m m n Z'
_symmetry_Int_Tables_number        59
loop_
_symmetry_equiv_pos_site_id
_symmetry_equiv_pos_as_xyz
  1	'x+.5, y+.5, -z'
  2	'-x, y+.5, -z'
  3	'x+.5, -y, -z'
  4	'-x, -y, -z'
  5	'-x+.5, -y+.5, z'
  6	'x, -y+.5, z'
  7	'-x+.5, y, z'
  8	'x, y, z'
loop_
_atom_type_symbol
_atom_type_oxidation_number
Cs1+	1
H1-	-1
Mg2+	2
loop_
_atom_site_label
_atom_site_type_symbol
_atom_site_symmetry_multiplicity
_atom_site_Wyckoff_symbol
_atom_site_fract_x
_atom_site_fract_y
_atom_site_fract_z
_atom_site_occupancy
_atom_site_attached_hydrogens
Cs1 Cs1+ 2 a 0.250 0.250 0.1797 1. 0 
Cs2 Cs1+ 4 f 0.4713 0.250 0.6797 1. 0 
Mg1 Mg2+ 2 b 0.250 0.750 0.6354 1. 0 
Mg2 Mg2+ 4 f 0.8897 0.250 0.0728 1. 0 
H1 H1- 2 b 0.250 0.750 0.0942 1. 0 
H2 H1- 4 c 0 0 0 1. 0 
H3 H1- 4 e 0.250 0.9851 0.4970 1. 0 
H4 H1- 4 e 0.250 0.9508 0.8333 1. 0 
H5 H1- 4 f 0.5513 0.250 0.2922 1. 0 

#End of data_159177-ICSD


