data_169412-ICSD
#?2014 by Fachinformationszentrum Karlsruhe, and the U.S. Secretary of 
#Commerce on behalf of the United States.  All rights reserved.
_database_code_ICSD                169412
_audit_creation_date               2011/02/01
_chemical_name_systematic          'Dialuminium Oxide Silicate'
_chemical_formula_structural       'Al2 O (Si O4)'
_chemical_formula_sum              'Al2 O5 Si1'
_chemical_name_mineral             Andalusite
_publ_section_title
;
Theoretical investigation of electronic and optical properties of 
andalusite within density functional theory
;
loop_
_citation_id
_citation_journal_abbrev
_citation_year
_citation_journal_volume
_citation_page_first
_citation_page_last
_citation_journal_id_ASTM
primary 'Solid State Communications' 2010 150 2154 2157 SSCOA4
_publ_author_name                  'Cano, N. F.;Watanabe, S.'
_cell_length_a                     7.7646
_cell_length_b                     7.8769
_cell_length_c                     5.6527
_cell_angle_alpha                  90.
_cell_angle_beta                   90.
_cell_angle_gamma                  90.
_cell_volume                       345.72
_cell_formula_units_Z              4
_symmetry_space_group_name_H-M     'P n n m'
_symmetry_Int_Tables_number        58
loop_
_symmetry_equiv_pos_site_id
_symmetry_equiv_pos_as_xyz
  1	'x+.5, -y+.5, z+.5'
  2	'-x+.5, y+.5, z+.5'
  3	'x, y, -z'
  4	'-x, -y, -z'
  5	'-x+.5, y+.5, -z+.5'
  6	'x+.5, -y+.5, -z+.5'
  7	'-x, -y, z'
  8	'x, y, z'
loop_
_atom_type_symbol
_atom_type_oxidation_number
Al3+	3
O2-	-2
Si4+	4
loop_
_atom_site_label
_atom_site_type_symbol
_atom_site_symmetry_multiplicity
_atom_site_Wyckoff_symbol
_atom_site_fract_x
_atom_site_fract_y
_atom_site_fract_z
_atom_site_occupancy
_atom_site_attached_hydrogens
Al1 Al3+ 4 e 0 0 0.2452 1. 0 
Al2 Al3+ 4 g 0.3630 0.1352 0.5 1. 0 
Si1 Si4+ 4 g 0.2427 0.2519 0 1. 0 
O1 O2- 4 g 0.4350 0.3604 0.5 1. 0 
O2 O2- 4 g 0.4084 0.3700 0 1. 0 
O3 O2- 4 g 0.1052 0.3977 0 1. 0 
O4 O2- 8 h 0.2288 0.1432 0.2315 1. 0 

#End of data_169412-ICSD


