data_245966-ICSD
#?2014 by Fachinformationszentrum Karlsruhe, and the U.S. Secretary of 
#Commerce on behalf of the United States.  All rights reserved.
_database_code_ICSD                245966
_audit_creation_date               2009/02/01
_chemical_name_systematic          'Dicesium Trilithium Pentafluoride'
_chemical_formula_structural       'Cs2 Li3 F5'
_chemical_formula_sum              'Cs2 F5 Li3'
_publ_section_title
;
Ab initio prediction of the low-temperature phase diagrams in the 
systems CsX-LiX (X = F, Cl, Br, I)
;
loop_
_citation_id
_citation_journal_abbrev
_citation_year
_citation_journal_volume
_citation_journal_issue
_citation_page_first
_citation_page_last
_citation_journal_id_ASTM
primary 'Solid State Sciences' 2008 10 6 804 813 SSSCFJ
_publ_author_name
;
Pentin, I.V.;Schoen, J.C.;Jansen, M.
;
_cell_length_a                     4.14
_cell_length_b                     4.23
_cell_length_c                     19.86
_cell_angle_alpha                  90.
_cell_angle_beta                   90.
_cell_angle_gamma                  90.
_cell_volume                       347.79
_cell_formula_units_Z              2
_symmetry_space_group_name_H-M     'A m m 2'
_symmetry_Int_Tables_number        38
loop_
_symmetry_equiv_pos_site_id
_symmetry_equiv_pos_as_xyz
  1	'x, -y, z'
  2	'-x, y, z'
  3	'-x, -y, z'
  4	'x, y, z'
  5	'x, -y+.5, z+.5'
  6	'-x, y+.5, z+.5'
  7	'-x, -y+.5, z+.5'
  8	'x, y+.5, z+.5'
loop_
_atom_type_symbol
_atom_type_oxidation_number
Cs1+	1
F1-	-1
Li1+	1
loop_
_atom_site_label
_atom_site_type_symbol
_atom_site_symmetry_multiplicity
_atom_site_Wyckoff_symbol
_atom_site_fract_x
_atom_site_fract_y
_atom_site_fract_z
_atom_site_occupancy
_atom_site_attached_hydrogens
Cs1 Cs1+ 2 b 0.5 0 0.61836 1. 0 
Cs2 Cs1+ 2 a 0 0 0.26769 1. 0 
Li1 Li1+ 2 b 0.5 0 0.87685 1. 0 
Li2 Li1+ 2 a 0 0 0.42380 1. 0 
Li3 Li1+ 2 a 0 0 0.01384 1. 0 
F1 F1- 2 b 0.5 0 0.39120 1. 0 
F2 F1- 2 a 0 0 0.51228 1. 0 
F3 F1- 2 a 0 0 0.91576 1. 0 
F4 F1- 2 b 0.5 0 0.78132 1. 0 
F5 F1- 2 a 0 0 0.10817 1. 0 

#End of data_245966-ICSD


