data_157953-ICSD
#?2014 by Fachinformationszentrum Karlsruhe, and the U.S. Secretary of 
#Commerce on behalf of the United States.  All rights reserved.
_database_code_ICSD                157953
_audit_creation_date               2008/02/01
_chemical_name_systematic
;
Zinc Beryllium Oxide (0.5/0.5/1) - Chalcopyrite Type
;
_chemical_formula_structural       'Zn0.5 Be0.5 O'
_chemical_formula_sum              'Be0.5 O1 Zn0.5'
_publ_section_title
;
First-principle study of structural stability and electronic 
properties of Zn1-x Bex O semiconductor alloy
;
loop_
_citation_id
_citation_journal_abbrev
_citation_year
_citation_journal_volume
_citation_journal_issue
_citation_page_first
_citation_page_last
_citation_journal_id_ASTM
primary 'Physica Status Solidi B - Basic Solid State Physics'
 2007 244 9 3183 3189 PSSBBD
_publ_author_name
;
Thangavel, R.;Rajagopalan, M.;Kumar, J.
;
_cell_length_a                     4.284
_cell_length_b                     4.284
_cell_length_c                     8.569
_cell_angle_alpha                  90.
_cell_angle_beta                   90.
_cell_angle_gamma                  90.
_cell_volume                       157.26
_cell_formula_units_Z              8
_symmetry_space_group_name_H-M     'I -4 2 d'
_symmetry_Int_Tables_number        122
loop_
_symmetry_equiv_pos_site_id
_symmetry_equiv_pos_as_xyz
  1	'-y, -x+.5, z+.25'
  2	'y, -x, -z'
  3	'y, x+.5, z+.25'
  4	'-y, x, -z'
  5	'x, -y+.5, -z+.25'
  6	'-x, -y, z'
  7	'-x, y+.5, -z+.25'
  8	'x, y, z'
  9	'-y+.5, -x, z+.75'
 10	'y+.5, -x+.5, -z+.5'
 11	'y+.5, x, z+.75'
 12	'-y+.5, x+.5, -z+.5'
 13	'x+.5, -y, -z+.75'
 14	'-x+.5, -y+.5, z+.5'
 15	'-x+.5, y, -z+.75'
 16	'x+.5, y+.5, z+.5'
loop_
_atom_type_symbol
_atom_type_oxidation_number
Be2+	2
O2-	-2
Zn2+	2
loop_
_atom_site_label
_atom_site_type_symbol
_atom_site_symmetry_multiplicity
_atom_site_Wyckoff_symbol
_atom_site_fract_x
_atom_site_fract_y
_atom_site_fract_z
_atom_site_occupancy
_atom_site_attached_hydrogens
Be1 Be2+ 4 a 0 0 0 1. 0 
Zn1 Zn2+ 4 b 0.5 0.5 0 1. 0 
O1 O2- 8 d 0.750 0.250 0.875 1. 0 

#End of data_157953-ICSD


