data_186517-ICSD
#?2014 by Fachinformationszentrum Karlsruhe, and the U.S. Secretary of 
#Commerce on behalf of the United States.  All rights reserved.
_database_code_ICSD                186517
_audit_creation_date               2013/08/01
_chemical_name_systematic          'Lithium Iron Silicate'
_chemical_formula_structural       'Li Fe (Si O4)'
_chemical_formula_sum              'Fe1 Li1 O4 Si1'
_publ_section_title
;
Structural properties and energetics of Li2 Fe Si O4 polymorphs and 
their delithiated products from first-principles
;
loop_
_citation_id
_citation_journal_abbrev
_citation_year
_citation_journal_volume
_citation_journal_issue
_citation_page_first
_citation_page_last
_citation_journal_id_ASTM
primary 'Physical Chemistry Chemical Physics' 2012 14 20 7346 7351 PPCPFQ
_publ_author_name
;
Zhang, P.;Hu, C.H.;Wu, S.Q.;Zhu, Z.Z.;Yang, Y.
;
_cell_length_a                     6.0813
_cell_length_b                     5.6351
_cell_length_c                     5.0421
_cell_angle_alpha                  90.
_cell_angle_beta                   89.243
_cell_angle_gamma                  90.
_cell_volume                       172.77
_cell_formula_units_Z              2
_symmetry_space_group_name_H-M     'P 1'
_symmetry_Int_Tables_number        1
loop_
_symmetry_equiv_pos_site_id
_symmetry_equiv_pos_as_xyz
  1	'x, y, z'
loop_
_atom_type_symbol
_atom_type_oxidation_number
Fe3+	3
Li1+	1
O2-	-2
Si4+	4
loop_
_atom_site_label
_atom_site_type_symbol
_atom_site_symmetry_multiplicity
_atom_site_Wyckoff_symbol
_atom_site_fract_x
_atom_site_fract_y
_atom_site_fract_z
_atom_site_occupancy
_atom_site_attached_hydrogens
Li1 Li1+ 1 a 0.2498 0.6648 0.4444 1. 0 
Li2 Li1+ 1 a 0.7498 0.3351 0.9444 1. 0 
Fe1 Fe3+ 1 a 0.5020 0.8388 0.9453 1. 0 
Fe2 Fe3+ 1 a 0.0020 0.1612 0.4453 1. 0 
Si1 Si4+ 1 a 0.9987 0.8343 0.9492 1. 0 
Si2 Si4+ 1 a 0.4987 0.1656 0.4492 1. 0 
O1 O2- 1 a 0.2270 0.7089 0.8349 1. 0 
O2 O2- 1 a 0.2761 0.3230 0.3848 1. 0 
O3 O2- 1 a 0.7270 0.2910 0.3349 1. 0 
O4 O2- 1 a 0.7761 0.6769 0.8848 1. 0 
O5 O2- 1 a 0.9771 0.1009 0.8139 1. 0 
O6 O2- 1 a 0.4771 0.8990 0.3139 1. 0 
O7 O2- 1 a 0.5192 0.1354 0.7733 1. 0 
O8 O2- 1 a 0.0192 0.8645 0.2733 1. 0 

#End of data_186517-ICSD


