data_27534-ICSD
#?2014 by Fachinformationszentrum Karlsruhe, and the U.S. Secretary of 
#Commerce on behalf of the United States.  All rights reserved.
_database_code_ICSD                27534
_audit_creation_date               1980/01/01
_audit_update_record               1984/04/05
_chemical_name_systematic          'Magnesium Silicate - Model Ii'
_chemical_formula_structural       'Mg2 Si O4'
_chemical_formula_sum              'Mg2 O4 Si1'
_publ_section_title
;
Computer-simulated crystal structures of observed and hypothetical 
Mg2 Si O4 polymorphs of low and high density
;
loop_
_citation_id
_citation_journal_abbrev
_citation_year
_citation_journal_volume
_citation_page_first
_citation_page_last
_citation_journal_id_ASTM
primary 'American Mineralogist' 1972 57 709 731 AMMIAY
_publ_author_name                  'Baur, W.H.'
_cell_length_a                     10.05
_cell_length_b                     5.75
_cell_length_c                     4.87
_cell_angle_alpha                  90.
_cell_angle_beta                   90.
_cell_angle_gamma                  90.
_cell_volume                       281.43
_cell_formula_units_Z              4
_symmetry_space_group_name_H-M     'C 1 2/m 1'
_symmetry_Int_Tables_number        12
loop_
_symmetry_equiv_pos_site_id
_symmetry_equiv_pos_as_xyz
  1	'-x, y, -z'
  2	'-x, -y, -z'
  3	'x, -y, z'
  4	'x, y, z'
  5	'-x+.5, y+.5, -z'
  6	'-x+.5, -y+.5, -z'
  7	'x+.5, -y+.5, z'
  8	'x+.5, y+.5, z'
loop_
_atom_type_symbol
_atom_type_oxidation_number
Mg2+	2
O2-	-2
Si4+	4
loop_
_atom_site_label
_atom_site_type_symbol
_atom_site_symmetry_multiplicity
_atom_site_Wyckoff_symbol
_atom_site_fract_x
_atom_site_fract_y
_atom_site_fract_z
_atom_site_occupancy
_atom_site_attached_hydrogens
Si1 Si4+ 4 i 0.333 0 0.8987 1. 0 
Mg1 Mg2+ 2 a 0 0 0 1. 0 
Mg2 Mg2+ 2 d 0.5 0 0.5 1. 0 
Mg3 Mg2+ 4 f 0.25 0.25 0.5 1. 0 
O1 O2- 4 i 0.8194 0 0.222 1. 0 
O2 O2- 4 i 0.3341 0 0.2353 1. 0 
O3 O2- 8 j 0.0908 0.2703 0.2253 1. 0 

#End of data_27534-ICSD


