data_245964-ICSD
#?2014 by Fachinformationszentrum Karlsruhe, and the U.S. Secretary of 
#Commerce on behalf of the United States.  All rights reserved.
_database_code_ICSD                245964
_audit_creation_date               2009/02/01
_chemical_name_systematic          'Tricesium Dilithium Pentafluoride'
_chemical_formula_structural       'Cs3 Li2 F5'
_chemical_formula_sum              'Cs3 F5 Li2'
_publ_section_title
;
Ab initio prediction of the low-temperature phase diagrams in the 
systems CsX-LiX (X = F, Cl, Br, I)
;
loop_
_citation_id
_citation_journal_abbrev
_citation_year
_citation_journal_volume
_citation_journal_issue
_citation_page_first
_citation_page_last
_citation_journal_id_ASTM
primary 'Solid State Sciences' 2008 10 6 804 813 SSSCFJ
_publ_author_name
;
Pentin, I.V.;Schoen, J.C.;Jansen, M.
;
_cell_length_a                     22.68
_cell_length_b                     6.14
_cell_length_c                     6.14
_cell_angle_alpha                  90.
_cell_angle_beta                   90.
_cell_angle_gamma                  90.
_cell_volume                       855.03
_cell_formula_units_Z              4
_symmetry_space_group_name_H-M     'F m m 2'
_symmetry_Int_Tables_number        42
loop_
_symmetry_equiv_pos_site_id
_symmetry_equiv_pos_as_xyz
  1	'x, -y, z'
  2	'-x, y, z'
  3	'-x, -y, z'
  4	'x, y, z'
  5	'x, -y+.5, z+.5'
  6	'x+.5, -y, z+.5'
  7	'x+.5, -y+.5, z'
  8	'-x, y+.5, z+.5'
  9	'-x+.5, y, z+.5'
 10	'-x+.5, y+.5, z'
 11	'-x, -y+.5, z+.5'
 12	'-x+.5, -y, z+.5'
 13	'-x+.5, -y+.5, z'
 14	'x, y+.5, z+.5'
 15	'x+.5, y, z+.5'
 16	'x+.5, y+.5, z'
loop_
_atom_type_symbol
_atom_type_oxidation_number
Cs1+	1
F1-	-1
Li1+	1
loop_
_atom_site_label
_atom_site_type_symbol
_atom_site_symmetry_multiplicity
_atom_site_Wyckoff_symbol
_atom_site_fract_x
_atom_site_fract_y
_atom_site_fract_z
_atom_site_occupancy
_atom_site_attached_hydrogens
Cs1 Cs1+ 8 d 0.13616 0 0.45358 1. 0 
Cs2 Cs1+ 4 a 0 0 0.95080 1. 0 
Li1 Li1+ 8 d 0.21956 0 0.92418 1. 0 
F1 F1- 4 a 0 0 0.45042 1. 0 
F2 F1- 8 b 0.25 0.25 0.27924 1. 0 
F3 F1- 8 d 0.13826 0 0.95597 1. 0 

#End of data_245964-ICSD


