data_27530-ICSD
#?2014 by Fachinformationszentrum Karlsruhe, and the U.S. Secretary of 
#Commerce on behalf of the United States.  All rights reserved.
_database_code_ICSD                27530
_audit_creation_date               1980/01/01
_audit_update_record               2005/10/01
_chemical_name_systematic          'Dimagnesium Silicate - Beta, Lt'
_chemical_formula_structural       'Mg2 (Si O4)'
_chemical_formula_sum              'Mg2 O4 Si1'
_publ_section_title
;
Computer-simulated crystal structures of observed and hypothetical 
Mg2 Si O4 Polymorphs of low and high density
;
loop_
_citation_id
_citation_journal_abbrev
_citation_year
_citation_journal_volume
_citation_page_first
_citation_page_last
_citation_journal_id_ASTM
primary 'American Mineralogist' 1972 57 709 731 AMMIAY
_publ_author_name                  'Baur, W.H.'
_cell_length_a                     8.16
_cell_length_b                     11.68
_cell_length_c                     5.71
_cell_angle_alpha                  90.
_cell_angle_beta                   90.
_cell_angle_gamma                  90.
_cell_volume                       544.21
_cell_formula_units_Z              8
_symmetry_space_group_name_H-M     'I b m m'
_symmetry_Int_Tables_number        74
loop_
_symmetry_equiv_pos_site_id
_symmetry_equiv_pos_as_xyz
  1	'-x, -y, z+.5'
  2	'x, -y, -z+.5'
  3	'x, -y, z'
  4	'-x, -y, -z'
  5	'x, y, -z+.5'
  6	'-x, y, z+.5'
  7	'-x, y, -z'
  8	'x, y, z'
  9	'-x+.5, -y+.5, z'
 10	'x+.5, -y+.5, -z'
 11	'x+.5, -y+.5, z+.5'
 12	'-x+.5, -y+.5, -z+.5'
 13	'x+.5, y+.5, -z'
 14	'-x+.5, y+.5, z'
 15	'-x+.5, y+.5, -z+.5'
 16	'x+.5, y+.5, z+.5'
loop_
_atom_type_symbol
_atom_type_oxidation_number
Mg2+	2
O2-	-2
Si4+	4
loop_
_atom_site_label
_atom_site_type_symbol
_atom_site_symmetry_multiplicity
_atom_site_Wyckoff_symbol
_atom_site_fract_x
_atom_site_fract_y
_atom_site_fract_z
_atom_site_occupancy
_atom_site_attached_hydrogens
Si1 Si4+ 8 i 0.1303 0.1255 0.25 1. 0 
Mg1 Mg2+ 4 e 0.2297 0 0.75 1. 0 
Mg2 Mg2+ 4 d 0.25 0.25 0.75 1. 0 
Mg3 Mg2+ 8 f 0 0.3701 0 1. 0 
O1 O2- 4 e 0.03 0 0.25 1. 0 
O2 O2- 4 e 0.4799 0 0.75 1. 0 
O3 O2- 8 i 0.004 0.2348 0.25 1. 0 
O4 O2- 16 j 0.2557 0.3751 0.0168 1. 0 

#End of data_27530-ICSD


