data_158573-ICSD
#?2014 by Fachinformationszentrum Karlsruhe, and the U.S. Secretary of 
#Commerce on behalf of the United States.  All rights reserved.
_database_code_ICSD                158573
_audit_creation_date               2008/08/01
_chemical_name_systematic          'Magnesium Catena-silicate - Ht'
_chemical_formula_structural       'Mg (Si O3)'
_chemical_formula_sum              'Mg1 O3 Si1'
_chemical_name_mineral             Clinoenstatite
_publ_section_title
;
Molecular dynamics simulations of the phase transition between low-
temperature and high-temperature clinoenstatites
;
loop_
_citation_id
_citation_journal_abbrev
_citation_year
_citation_journal_volume
_citation_page_first
_citation_page_last
_citation_journal_id_ASTM
primary 'Physics and Chemistry of Minerals' 2001 28 591 599 PCMIDU
_publ_author_name
;
Shimobayashi, N.;Miyake, A.;Kitamura, M.;Miura, E.
;
_cell_length_a                     10.08
_cell_length_b                     8.93
_cell_length_c                     5.41
_cell_angle_alpha                  90.
_cell_angle_beta                   109.82
_cell_angle_gamma                  90.
_cell_volume                       458.13
_cell_formula_units_Z              8
_symmetry_space_group_name_H-M     'C 1 2/c 1'
_symmetry_Int_Tables_number        15
loop_
_symmetry_equiv_pos_site_id
_symmetry_equiv_pos_as_xyz
  1	'x, -y, z+.5'
  2	'-x, -y, -z'
  3	'-x, y, -z+.5'
  4	'x, y, z'
  5	'x+.5, -y+.5, z+.5'
  6	'-x+.5, -y+.5, -z'
  7	'-x+.5, y+.5, -z+.5'
  8	'x+.5, y+.5, z'
loop_
_atom_type_symbol
_atom_type_oxidation_number
Mg2+	2
O2-	-2
Si4+	4
loop_
_atom_site_label
_atom_site_type_symbol
_atom_site_symmetry_multiplicity
_atom_site_Wyckoff_symbol
_atom_site_fract_x
_atom_site_fract_y
_atom_site_fract_z
_atom_site_occupancy
_atom_site_attached_hydrogens
Mg1 Mg2+ 4 e 0 0.91 0.25 1. 0 
Mg2 Mg2+ 4 e 0 0.26 0.250 1. 0 
Si1 Si4+ 8 f 0.30 0.09 0.27 1. 0 
O1 O2- 8 f 0.13 0.10 0.16 1. 0 
O2 O2- 8 f 0.37 0.25 0.34 1. 0 
O3 O2- 8 f 0.35 0 0.05 1. 0 

#End of data_158573-ICSD


