data_240454-ICSD
#?2014 by Fachinformationszentrum Karlsruhe, and the U.S. Secretary of 
#Commerce on behalf of the United States.  All rights reserved.
_database_code_ICSD                240454
_audit_creation_date               2007/04/01
_audit_update_record               2010/02/01
_chemical_name_systematic          'Calcium Catena-silicate'
_chemical_formula_structural       'Ca (Si O3)'
_chemical_formula_sum              'Ca1 O3 Si1'
_publ_section_title
;
Theoretical determination of the structures of Ca Si O3 perovskites
;
loop_
_citation_id
_citation_journal_abbrev
_citation_year
_citation_journal_volume
_citation_page_first
_citation_page_last
_citation_journal_id_ASTM
primary 'Acta Crystallographica, Section B: Structural Science'
 2006 62 1025 1030 ASBSDK
_publ_author_name                  'Caracas, R.;Wentzcovitch, R.M.'
_cell_length_a                     7.0476
_cell_length_b                     7.0476
_cell_length_c                     7.1764
_cell_angle_alpha                  90.
_cell_angle_beta                   90.
_cell_angle_gamma                  90.
_cell_volume                       356.44
_cell_formula_units_Z              8
_symmetry_space_group_name_H-M     'P 42/n m c Z'
_symmetry_Int_Tables_number        137
loop_
_symmetry_equiv_pos_site_id
_symmetry_equiv_pos_as_xyz
  1	'y+.5, x+.5, -z+.5'
  2	'-y, x+.5, -z+.5'
  3	'y+.5, -x, -z+.5'
  4	'-y, -x, -z+.5'
  5	'x+.5, y+.5, -z'
  6	'-x, y+.5, -z'
  7	'x+.5, -y, -z'
  8	'-x, -y, -z'
  9	'-y+.5, -x+.5, z+.5'
 10	'y, -x+.5, z+.5'
 11	'-y+.5, x, z+.5'
 12	'y, x, z+.5'
 13	'-x+.5, -y+.5, z'
 14	'x, -y+.5, z'
 15	'-x+.5, y, z'
 16	'x, y, z'
loop_
_atom_type_symbol
_atom_type_oxidation_number
Ca2+	2
O2-	-2
Si4+	4
loop_
_atom_site_label
_atom_site_type_symbol
_atom_site_symmetry_multiplicity
_atom_site_Wyckoff_symbol
_atom_site_fract_x
_atom_site_fract_y
_atom_site_fract_z
_atom_site_occupancy
_atom_site_attached_hydrogens
Ca1 Ca2+ 2 a 0.75 0.25 0.75 1. 0 
Ca2 Ca2+ 2 b 0.75 0.25 0.25 1. 0 
Ca3 Ca2+ 4 d 0.25 0.25 0.2509 1. 0 
Si1 Si4+ 8 e 0 0 0 1. 0 
O1 O2- 8 f 0.0014 -.0014 0.25 1. 0 
O2 O2- 8 g 0.25 0.0326 0.0013 1. 0 
O3 O2- 8 g 0.75 0.0326 0.5014 1. 0 

#End of data_240454-ICSD


