data_163891-ICSD
#?2014 by Fachinformationszentrum Karlsruhe, and the U.S. Secretary of 
#Commerce on behalf of the United States.  All rights reserved.
_database_code_ICSD                163891
_audit_creation_date               2009/08/01
_chemical_name_systematic          'Magnesium Catena-silicate'
_chemical_formula_structural       'Mg (Si O3)'
_chemical_formula_sum              'Mg1 O3 Si1'
_chemical_name_mineral             Protoenstatite
_publ_section_title
;
Phase behavior of protoenstatite at high pressure studied by 
atomistic simulations
;
loop_
_citation_id
_citation_journal_abbrev
_citation_year
_citation_journal_volume
_citation_page_first
_citation_page_last
_citation_journal_id_ASTM
primary 'American Mineralogist' 2009 94 950 956 AMMIAY
_publ_author_name                  'Jahn, S.;Martonak, R.'
_cell_length_a                     9.171
_cell_length_b                     8.513
_cell_length_c                     5.254
_cell_angle_alpha                  90.
_cell_angle_beta                   90.
_cell_angle_gamma                  90.
_cell_volume                       410.19
_cell_formula_units_Z              8
_symmetry_space_group_name_H-M     'P b c n'
_symmetry_Int_Tables_number        60
loop_
_symmetry_equiv_pos_site_id
_symmetry_equiv_pos_as_xyz
  1	'x, -y, z+.5'
  2	'-x+.5, y+.5, z'
  3	'x+.5, y+.5, -z+.5'
  4	'-x, -y, -z'
  5	'-x, y, -z+.5'
  6	'x+.5, -y+.5, -z'
  7	'-x+.5, -y+.5, z+.5'
  8	'x, y, z'
loop_
_atom_type_symbol
_atom_type_oxidation_number
Mg2+	2
O2-	-2
Si4+	4
loop_
_atom_site_label
_atom_site_type_symbol
_atom_site_symmetry_multiplicity
_atom_site_Wyckoff_symbol
_atom_site_fract_x
_atom_site_fract_y
_atom_site_fract_z
_atom_site_occupancy
_atom_site_attached_hydrogens
O1 O2- 8 d 0.1181 0.0947 0.0792 1. 0 
O2 O2- 8 d 0.3758 0.2519 0.0697 1. 0 
O3 O2- 8 d 0.3493 0.9763 0.2928 1. 0 
Si1 Si4+ 8 d 0.2913 0.0920 0.0679 1. 0 
Mg1 Mg2+ 4 c 0 0.0944 0.750 1. 0 
Mg2 Mg2+ 4 c 0 0.2666 0.250 1. 0 

#End of data_163891-ICSD


