data_162770-ICSD
#?2014 by Fachinformationszentrum Karlsruhe, and the U.S. Secretary of 
#Commerce on behalf of the United States.  All rights reserved.
_database_code_ICSD                162770
_audit_creation_date               2009/08/01
_chemical_name_systematic          'Lithium Beryllium Hydride - Alpha'
_chemical_formula_structural       'Li Be H3'
_chemical_formula_sum              'H3 Be1 Li1'
_publ_section_title
;
Crystal structure prediction of Li Be H3 using ab initio total-energy 
calculations and evolutionary simulations
;
loop_
_citation_id
_citation_journal_abbrev
_citation_year
_citation_journal_volume
_citation_page_first
_citation_page_last
_citation_journal_id_ASTM
primary 'Journal of Chemical Physics' 2008 129 234105-1 234105-12 JCPSA6
_publ_author_name
;
Hu Chaohao;Oganov, A.R.;Wang, Y.W.;Zhou, H.-Y.;Lyakhov, A.;Hafner, J.
;
_cell_length_a                     6.0138
_cell_length_b                     6.1251
_cell_length_c                     13.1242
_cell_angle_alpha                  90.
_cell_angle_beta                   82.3646
_cell_angle_gamma                  90.
_cell_volume                       479.15
_cell_formula_units_Z              12
_symmetry_space_group_name_H-M     'P 1 21/c 1'
_symmetry_Int_Tables_number        14
loop_
_symmetry_equiv_pos_site_id
_symmetry_equiv_pos_as_xyz
  1	'x, -y+.5, z+.5'
  2	'-x, -y, -z'
  3	'-x, y+.5, -z+.5'
  4	'x, y, z'
loop_
_atom_type_symbol
_atom_type_oxidation_number
Be2+	2
H1-	-1
Li1+	1
loop_
_atom_site_label
_atom_site_type_symbol
_atom_site_symmetry_multiplicity
_atom_site_Wyckoff_symbol
_atom_site_fract_x
_atom_site_fract_y
_atom_site_fract_z
_atom_site_occupancy
_atom_site_attached_hydrogens
Li1 Li1+ 4 e 0.01034 0.11905 0.24776 1. 0 
Li2 Li1+ 4 e 0.23913 0.88227 0.40684 1. 0 
Li3 Li1+ 4 e 0.25256 0.37237 0.39902 1. 0 
Be1 Be2+ 4 e 0.22830 0.59347 0.58761 1. 0 
Be2 Be2+ 4 e 0.22408 0.16547 0.59160 1. 0 
Be3 Be2+ 4 e 0.56545 0.11780 0.31356 1. 0 
H1 H1- 4 e 0.33048 0.11811 0.30598 1. 0 
H2 H1- 4 e 0.29176 0.61712 0.28155 1. 0 
H3 H1- 4 e 0.02654 0.64435 0.65174 1. 0 
H4 H1- 4 e 0.02541 0.12017 0.65892 1. 0 
H5 H1- 4 e 0.22524 0.62362 0.48159 1. 0 
H6 H1- 4 e 0.19721 0.13091 0.48930 1. 0 
H7 H1- 4 e 0.42305 0.69535 0.61974 1. 0 
H8 H1- 4 e 0.42500 0.06448 0.61744 1. 0 
H9 H1- 4 e 0.29287 0.38009 0.61611 1. 0 

#End of data_162770-ICSD


