data_168226-ICSD
#?2014 by Fachinformationszentrum Karlsruhe, and the U.S. Secretary of 
#Commerce on behalf of the United States.  All rights reserved.
_database_code_ICSD                168226
_audit_creation_date               2011/02/01
_chemical_name_systematic
;
Calcium Bis(tetrahydridoborate) - Beta,p42
;
_chemical_formula_structural       'Ca (B H4)2'
_chemical_formula_sum              'H8 B2 Ca1'
_publ_section_title
;
Calcium borohydride for hydrogen storage: a computational study of Ca 
(B H4)2 crystal structures and the Ca B2 Hx intermediate
;
loop_
_citation_id
_citation_journal_abbrev
_citation_year
_citation_journal_volume
_citation_page_first
_citation_page_last
_citation_journal_id_ASTM
primary 'Journal of Physical Chemistry C' 2010 114 9503 9509 JPCCCK
_publ_author_name                  'Frankcombe, T.J.'
_cell_length_a                     6.9461
_cell_length_b                     6.9461
_cell_length_c                     4.3532
_cell_angle_alpha                  90.
_cell_angle_beta                   90.
_cell_angle_gamma                  90.
_cell_volume                       210.03
_cell_formula_units_Z              2
_symmetry_space_group_name_H-M     'P 42'
_symmetry_Int_Tables_number        77
loop_
_symmetry_equiv_pos_site_id
_symmetry_equiv_pos_as_xyz
  1	'y, -x, z+.5'
  2	'-y, x, z+.5'
  3	'-x, -y, z'
  4	'x, y, z'
loop_
_atom_type_symbol
_atom_type_oxidation_number
B3+	3
Ca2+	2
H1-	-1
loop_
_atom_site_label
_atom_site_type_symbol
_atom_site_symmetry_multiplicity
_atom_site_Wyckoff_symbol
_atom_site_fract_x
_atom_site_fract_y
_atom_site_fract_z
_atom_site_occupancy
_atom_site_attached_hydrogens
Ca1 Ca2+ 2 c 0 0.5 0.02272 1. 0 
B1 B3+ 4 d 0.20243 0.68370 0.52258 1. 0 
H1 H1- 4 d 0.37769 0.69420 0.52288 1. 0 
H2 H1- 4 d 0.13420 0.76201 0.29546 1. 0 
H3 H1- 4 d 0.13374 0.76218 0.74916 1. 0 
H4 H1- 4 d 0.17132 0.50991 0.52256 1. 0 

#End of data_168226-ICSD


