data_85743-ICSD
#?2014 by Fachinformationszentrum Karlsruhe, and the U.S. Secretary of 
#Commerce on behalf of the United States.  All rights reserved.
_database_code_ICSD                85743
_audit_creation_date               1999/11/30
_chemical_name_systematic          'Dialuminium Silicate Oxide'
_chemical_formula_structural       'Al2 (Si O4) O'
_chemical_formula_sum              'Al2 O5 Si1'
_chemical_name_mineral             Andalusite
_publ_section_title
;
Computer simulation of the structure, properties and stability of the 
Al2 Si O5 polymorphs: I. Ionic model
;
loop_
_citation_id
_citation_journal_abbrev
_citation_year
_citation_journal_volume
_citation_page_first
_citation_page_last
_citation_journal_id_ASTM
primary Geokhimiya 1998 5 456 474 GEOKAQ
2 'Geochemistry International' 1998 5 397 414 GCINAP
_publ_author_name
;
Urusov, V.S.;Oganov, A.P.;Eremin, N.N.
;
_cell_length_a                     7.679
_cell_length_b                     7.7496
_cell_length_c                     5.6798
_cell_angle_alpha                  90.
_cell_angle_beta                   90.
_cell_angle_gamma                  90.
_cell_volume                       338
_cell_formula_units_Z              4
_symmetry_space_group_name_H-M     'P n n m'
_symmetry_Int_Tables_number        58
loop_
_symmetry_equiv_pos_site_id
_symmetry_equiv_pos_as_xyz
  1	'x+.5, -y+.5, z+.5'
  2	'-x+.5, y+.5, z+.5'
  3	'x, y, -z'
  4	'-x, -y, -z'
  5	'-x+.5, y+.5, -z+.5'
  6	'x+.5, -y+.5, -z+.5'
  7	'-x, -y, z'
  8	'x, y, z'
loop_
_atom_type_symbol
_atom_type_oxidation_number
Al3+	3
O2-	-2
Si4+	4
loop_
_atom_site_label
_atom_site_type_symbol
_atom_site_symmetry_multiplicity
_atom_site_Wyckoff_symbol
_atom_site_fract_x
_atom_site_fract_y
_atom_site_fract_z
_atom_site_occupancy
_atom_site_attached_hydrogens
Al1 Al3+ 4 e 0 0 0.2477 1. 0 
Al2 Al3+ 4 g 0.361 0.1389 0.5 1. 0 
Si1 Si4+ 4 g 0.2305 0.2538 0 1. 0 
O1 O2- 4 g 0.4574 0.3508 0.5 1. 0 
O2 O2- 4 g 0.4132 0.3706 0 1. 0 
O3 O2- 4 g 0.0937 0.4109 0 1. 0 
O4 O2- 8 h 0.2243 0.136 0.2413 1. 0 

#End of data_85743-ICSD


