data_186254-ICSD
#?2014 by Fachinformationszentrum Karlsruhe, and the U.S. Secretary of 
#Commerce on behalf of the United States.  All rights reserved.
_database_code_ICSD                186254
_audit_creation_date               2013/02/01
_chemical_name_systematic          'Silver Niobate'
_chemical_formula_structural       'Ag (Nb O3)'
_chemical_formula_sum              'Ag1 Nb1 O3'
_publ_section_title
;
First principles study of lead free piezoelectric Ag Nb O3 and (Ag1-x 
Kx) Nb O3 solid solutions
;
loop_
_citation_id
_citation_journal_abbrev
_citation_year
_citation_journal_volume
_citation_journal_issue
_citation_page_first
_citation_page_last
_citation_journal_id_ASTM
primary 'Solid State Communications' 2012 152 17 1707 1710 SSCOA4
_publ_author_name                  'Niranjan, M.K.;Asthana, S.'
_cell_length_a                     15.387
_cell_length_b                     5.458
_cell_length_c                     5.538
_cell_angle_alpha                  90.
_cell_angle_beta                   90.
_cell_angle_gamma                  90.
_cell_volume                       465.09
_cell_formula_units_Z              8
_symmetry_space_group_name_H-M     'P m c 21'
_symmetry_Int_Tables_number        26
loop_
_symmetry_equiv_pos_site_id
_symmetry_equiv_pos_as_xyz
  1	'x, -y, z+.5'
  2	'-x, -y, z+.5'
  3	'-x, y, z'
  4	'x, y, z'
loop_
_atom_type_symbol
_atom_type_oxidation_number
Ag1+	1
Nb5+	5
O2-	-2
loop_
_atom_site_label
_atom_site_type_symbol
_atom_site_symmetry_multiplicity
_atom_site_Wyckoff_symbol
_atom_site_fract_x
_atom_site_fract_y
_atom_site_fract_z
_atom_site_occupancy
_atom_site_attached_hydrogens
Ag1 Ag1+ 4 c 0.7499 0.7438 0.2655 1. 0 
Ag2 Ag1+ 2 b 0.5 0.7383 0.2368 1. 0 
Ag3 Ag1+ 2 a 0 0.7384 0.2936 1. 0 
Nb1 Nb5+ 4 c 0.6250 0.7558 0.7392 1. 0 
Nb2 Nb5+ 4 c 0.1250 0.2442 0.2914 1. 0 
O1 O2- 4 c 0.75 0.6783 0.7652 1. 0 
O2 O2- 2 b 0.5 0.8182 0.7931 1. 0 
O3 O2- 4 c 0.6069 0.5459 0.4743 1. 0 
O4 O2- 4 c 0.6429 0.0468 0.5611 1. 0 
O5 O2- 2 a 0 0.1823 0.2372 1. 0 
O6 O2- 4 c 0.1428 0.0469 0.9692 1. 0 
O7 O2- 4 c 0.1070 0.4538 0.5566 1. 0 

#End of data_186254-ICSD


