data_186187-ICSD
#?2014 by Fachinformationszentrum Karlsruhe, and the U.S. Secretary of 
#Commerce on behalf of the United States.  All rights reserved.
_database_code_ICSD                186187
_audit_creation_date               2013/02/01
_chemical_name_systematic
;
Zinc Chromium Sulfide (0.75/0.25/1)
;
_chemical_formula_structural       '(Zn0.75 Cr0.25) S'
_chemical_formula_sum              'Cr0.25 S1 Zn0.75'
_publ_section_title
;
First principle study on the electronic and magnetic properties in 
Zn0.75 Cr0.25 M (M= S, Se, Te) semiconductors
;
loop_
_citation_id
_citation_journal_abbrev
_citation_year
_citation_journal_volume
_citation_page_first
_citation_page_last
_citation_journal_id_ASTM
primary 'Journal of Alloys and Compounds' 2012 539 271 275 JALCEU
_publ_author_name
;
Huang Yuhong;Jie Wanqi;Zha Gangqiang
;
_cell_length_a                     5.473
_cell_length_b                     5.473
_cell_length_c                     5.473
_cell_angle_alpha                  90.
_cell_angle_beta                   90.
_cell_angle_gamma                  90.
_cell_volume                       163.94
_cell_formula_units_Z              4
_symmetry_space_group_name_H-M     'P -4 3 m'
_symmetry_Int_Tables_number        215
loop_
_symmetry_equiv_pos_site_id
_symmetry_equiv_pos_as_xyz
  1	'-z, -y, x'
  2	'-y, -x, z'
  3	'-x, -z, y'
  4	'-z, -x, y'
  5	'-y, -z, x'
  6	'-x, -y, z'
  7	'-z, y, -x'
  8	'-y, x, -z'
  9	'-x, z, -y'
 10	'-z, x, -y'
 11	'-y, z, -x'
 12	'-x, y, -z'
 13	'z, -y, -x'
 14	'y, -x, -z'
 15	'x, -z, -y'
 16	'z, -x, -y'
 17	'y, -z, -x'
 18	'x, -y, -z'
 19	'z, y, x'
 20	'y, x, z'
 21	'x, z, y'
 22	'z, x, y'
 23	'y, z, x'
 24	'x, y, z'
loop_
_atom_type_symbol
_atom_type_oxidation_number
Cr2+	2
S2-	-2
Zn2+	2
loop_
_atom_site_label
_atom_site_type_symbol
_atom_site_symmetry_multiplicity
_atom_site_Wyckoff_symbol
_atom_site_fract_x
_atom_site_fract_y
_atom_site_fract_z
_atom_site_occupancy
_atom_site_attached_hydrogens
Cr1 Cr2+ 1 a 0 0 0 1. 0 
Zn1 Zn2+ 3 c 0 0.5 0.5 1. 0 
S1 S2- 4 e 0.25 0.25 0.25 1. 0 

#End of data_186187-ICSD


