data_180445-ICSD
#?2014 by Fachinformationszentrum Karlsruhe, and the U.S. Secretary of 
#Commerce on behalf of the United States.  All rights reserved.
_database_code_ICSD                180445
_audit_creation_date               2012/02/01
_chemical_name_systematic          'Magnesium Silicate - Np'
_chemical_formula_structural       'Mg (Si O3)'
_chemical_formula_sum              'Mg1 O3 Si1'
_chemical_name_mineral             'Clinoenstatite low'
_publ_section_title
;
First principles study of thermodynamics and phase transition in low-
pressure (P21/c) and high-pressure (C2/c) clinoenstatite Mg Si O3
;
loop_
_citation_id
_citation_journal_abbrev
_citation_year
_citation_journal_volume
_citation_page_first
_citation_page_last
_citation_journal_id_ASTM
primary 'Journal of geophysical research, American Geophysical Union'
 2010 115 B02201-1 B02201-10 JGEREE
_publ_author_name
;
Yu, Yong Gang G.;Wentzcovitch, R.M.;Angel, R.J.
;
_cell_length_a                     9.544
_cell_length_b                     8.755
_cell_length_c                     5.140
_cell_angle_alpha                  90.
_cell_angle_beta                   107.78
_cell_angle_gamma                  90.
_cell_volume                       408.97
_cell_formula_units_Z              8
_symmetry_space_group_name_H-M     'P 1 21/c 1'
_symmetry_Int_Tables_number        14
loop_
_symmetry_equiv_pos_site_id
_symmetry_equiv_pos_as_xyz
  1	'x, -y+.5, z+.5'
  2	'-x, -y, -z'
  3	'-x, y+.5, -z+.5'
  4	'x, y, z'
loop_
_atom_type_symbol
_atom_type_oxidation_number
Mg2+	2
O2-	-2
Si4+	4
loop_
_atom_site_label
_atom_site_type_symbol
_atom_site_symmetry_multiplicity
_atom_site_Wyckoff_symbol
_atom_site_fract_x
_atom_site_fract_y
_atom_site_fract_z
_atom_site_occupancy
_atom_site_attached_hydrogens
Mg1 Mg2+ 4 e 0.2516 0.6555 0.2140 1. 0 
Mg2 Mg2+ 4 e 0.2571 0.0154 0.2112 1. 0 
Si1 Si4+ 4 e 0.0425 0.3419 0.2963 1. 0 
Si2 Si4+ 4 e 0.5547 0.8373 0.2248 1. 0 
O1 O2- 4 e 0.8649 0.3397 0.1885 1. 0 
O2 O2- 4 e 0.1226 0.5030 0.3194 1. 0 
O3 O2- 4 e 0.1070 0.2829 0.6198 1. 0 
O4 O2- 4 e 0.3764 0.8384 0.1204 1. 0 
O5 O2- 4 e 0.6341 0.9829 0.3908 1. 0 
O6 O2- 4 e 0.6082 0.6901 0.4449 1. 0 

#End of data_180445-ICSD


