data_180387-ICSD
#?2014 by Fachinformationszentrum Karlsruhe, and the U.S. Secretary of 
#Commerce on behalf of the United States.  All rights reserved.
_database_code_ICSD                180387
_audit_creation_date               2011/08/01
_chemical_name_systematic
;
Lithium Imide (1.88/0.12) - Hypothetical, Stable
;
_chemical_formula_structural       'Li1.875 N H1.125'
_chemical_formula_sum              'H1.125 Li1.875 N1'
_publ_section_title
;
Theoretical investigation of intermediate phases between Li2 N H and 
Li N H2
;
loop_
_citation_id
_citation_journal_abbrev
_citation_year
_citation_journal_volume
_citation_page_first
_citation_page_last
_citation_journal_id_ASTM
primary 'Physical Review, Serie 3. B - Condensed Matter (18,1978-)'
 2010 82 094112-1 094112-6 PRBMDO
_publ_author_name                  'Zhang, Feng;Wang, Yan;Chou, M.-Y.'
_cell_length_a                     7.07
_cell_length_b                     10.25
_cell_length_c                     7.07
_cell_angle_alpha                  90.
_cell_angle_beta                   88.57
_cell_angle_gamma                  90.
_cell_volume                       512.19
_cell_formula_units_Z              16
_symmetry_space_group_name_H-M     'P 1 c 1'
_symmetry_Int_Tables_number        7
loop_
_symmetry_equiv_pos_site_id
_symmetry_equiv_pos_as_xyz
  1	'x, -y, z+.5'
  2	'x, y, z'
loop_
_atom_type_symbol
_atom_type_oxidation_number
H1+	1
Li1+	1
N3-	-3
loop_
_atom_site_label
_atom_site_type_symbol
_atom_site_symmetry_multiplicity
_atom_site_Wyckoff_symbol
_atom_site_fract_x
_atom_site_fract_y
_atom_site_fract_z
_atom_site_occupancy
_atom_site_attached_hydrogens
Li1 Li1+ 2 a 0.376 0.385 0.733 1. 0 
Li2 Li1+ 2 a 0.819 0.851 0.255 1. 0 
Li3 Li1+ 2 a 0.364 0.896 0.797 1. 0 
Li4 Li1+ 2 a 0.872 0.387 0.268 1. 0 
Li5 Li1+ 2 a 0.373 0.113 0.711 1. 0 
Li6 Li1+ 2 a 0.862 0.615 0.222 1. 0 
Li7 Li1+ 2 a 0.117 0.245 0.783 1. 0 
Li8 Li1+ 2 a 0.107 0.123 0.501 1. 0 
Li9 Li1+ 2 a 0.682 0.408 0.992 1. 0 
Li10 Li1+ 2 a 0.139 0.894 0.518 1. 0 
Li11 Li1+ 2 a 0.620 0.633 0.009 1. 0 
Li12 Li1+ 2 a 0.120 0.369 0.494 1. 0 
Li13 Li1+ 2 a 0.566 0.090 0.005 1. 0 
Li14 Li1+ 2 a 0.074 0.591 0.5 1. 0 
Li15 Li1+ 2 a 0.627 0.865 0.995 1. 0 
N1 N3- 2 a 0.601 0.008 0.750 1. 0 
N2 N3- 2 a 0.108 0.514 0.243 1. 0 
N3 N3- 2 a 0.136 0.015 0.756 1. 0 
N4 N3- 2 a 0.632 0.506 0.243 1. 0 
N5 N3- 2 a 0.364 0.244 0.512 1. 0 
N6 N3- 2 a 0.889 0.270 0.969 1. 0 
N7 N3- 2 a 0.361 0.763 0.467 1. 0 
N8 N3- 2 a 0.871 0.744 0.010 1. 0 
H1 H1+ 2 a 0.226 0.547 0.737 1. 0 
H2 H1+ 2 a 0.725 0.046 0.236 1. 0 
H3 H1+ 2 a 0.523 0.564 0.747 1. 0 
H4 H1+ 2 a 0.999 0.020 0.261 1. 0 
H5 H1+ 2 a 0.887 0.207 0.383 1. 0 
H6 H1+ 2 a 0.347 0.297 0.083 1. 0 
H7 H1+ 2 a 0.849 0.793 0.577 1. 0 
H8 H1+ 2 a 0.368 0.702 0.887 1. 0 
H9 H1+ 2 a 0.495 0.262 0.914 1. 0 

#End of data_180387-ICSD


