data_161057-ICSD
#?2014 by Fachinformationszentrum Karlsruhe, and the U.S. Secretary of 
#Commerce on behalf of the United States.  All rights reserved.
_database_code_ICSD                161057
_audit_creation_date               2009/02/01
_chemical_name_systematic          'Magnesium Dialuminate'
_chemical_formula_structural       'Mg (Al2 O4)'
_chemical_formula_sum              'Al2 Mg1 O4'
_publ_section_title
;
First-principles simulation of high-pressure polymorphs in Mg Al2 O4
;
loop_
_citation_id
_citation_journal_abbrev
_citation_year
_citation_journal_volume
_citation_page_first
_citation_page_last
_citation_journal_id_ASTM
primary 'Physics and Chemistry of Minerals' 2008 35 381 386 PCMIDU
_publ_author_name                  'Ono, S.;Brodholt, J.P.;Price, G.D.'
_cell_length_a                     2.803
_cell_length_b                     9.261
_cell_length_c                     9.458
_cell_angle_alpha                  90.
_cell_angle_beta                   90.
_cell_angle_gamma                  90.
_cell_volume                       245.52
_cell_formula_units_Z              4
_symmetry_space_group_name_H-M     'C m c m'
_symmetry_Int_Tables_number        63
loop_
_symmetry_equiv_pos_site_id
_symmetry_equiv_pos_as_xyz
  1	'-x, y, -z+.5'
  2	'-x, -y, z+.5'
  3	'-x, y, z'
  4	'-x, -y, -z'
  5	'x, -y, z+.5'
  6	'x, y, -z+.5'
  7	'x, -y, -z'
  8	'x, y, z'
  9	'-x+.5, y+.5, -z+.5'
 10	'-x+.5, -y+.5, z+.5'
 11	'-x+.5, y+.5, z'
 12	'-x+.5, -y+.5, -z'
 13	'x+.5, -y+.5, z+.5'
 14	'x+.5, y+.5, -z+.5'
 15	'x+.5, -y+.5, -z'
 16	'x+.5, y+.5, z'
loop_
_atom_type_symbol
_atom_type_oxidation_number
Al3+	3
Mg2+	2
O2-	-2
loop_
_atom_site_label
_atom_site_type_symbol
_atom_site_symmetry_multiplicity
_atom_site_Wyckoff_symbol
_atom_site_fract_x
_atom_site_fract_y
_atom_site_fract_z
_atom_site_occupancy
_atom_site_attached_hydrogens
Mg1 Mg2+ 4 c 0 0.3893 0.250 1. 0 
Al1 Al3+ 8 f 0 0.1345 0.0733 1. 0 
O1 O2- 4 b 0 0.5 0 1. 0 
O2 O2- 4 c 0 0.0477 0.250 1. 0 
O3 O2- 8 f 0 0.2300 0.8898 1. 0 

#End of data_161057-ICSD


