data_169858-ICSD
#?2014 by Fachinformationszentrum Karlsruhe, and the U.S. Secretary of 
#Commerce on behalf of the United States.  All rights reserved.
_database_code_ICSD                169858
_audit_creation_date               2011/08/01
_chemical_name_systematic          'Dilithium Imide'
_chemical_formula_structural       'Li2 N H'
_chemical_formula_sum              'H1 Li2 N1'
_publ_section_title
;
Ab initio structural simulation and electronic structure of lithium 
imide
;
loop_
_citation_id
_citation_journal_abbrev
_citation_year
_citation_journal_volume
_citation_journal_issue
_citation_page_first
_citation_page_last
_citation_journal_id_ASTM
primary 'Wu Li Hsueh Pao (= Acta Physica Sinica)' 2010 59 3 1991 1996 WLHPAR
_publ_author_name
;
Yu, Da Long;Chen, Yu Hong;Cao, Yi Jie;Zhang, Cai Rong
;
_cell_length_a                     4.832
_cell_length_b                     4.832
_cell_length_c                     5.262
_cell_angle_alpha                  90.
_cell_angle_beta                   90.
_cell_angle_gamma                  90.
_cell_volume                       122.86
_cell_formula_units_Z              4
_symmetry_space_group_name_H-M     'P 42'
_symmetry_Int_Tables_number        77
loop_
_symmetry_equiv_pos_site_id
_symmetry_equiv_pos_as_xyz
  1	'y, -x, z+.5'
  2	'-y, x, z+.5'
  3	'-x, -y, z'
  4	'x, y, z'
loop_
_atom_type_symbol
_atom_type_oxidation_number
H1+	1
Li1+	1
N3-	-3
loop_
_atom_site_label
_atom_site_type_symbol
_atom_site_symmetry_multiplicity
_atom_site_Wyckoff_symbol
_atom_site_fract_x
_atom_site_fract_y
_atom_site_fract_z
_atom_site_occupancy
_atom_site_attached_hydrogens
Li1 Li1+ 2 a 0 0 0 1. 0 
Li2 Li1+ 2 b 0.5 0.5 0 1. 0 
Li3 Li1+ 2 c 0 0.5 0 1. 0 
Li4 Li1+ 2 c 0 0.5 0.5 1. 0 
N1 N3- 4 d 0.25 0.25 0.25 1. 0 
H1 H1+ 4 d 0.5377 0.2498 0.7781 1. 0 

#End of data_169858-ICSD


