data_165709-ICSD
#?2014 by Fachinformationszentrum Karlsruhe, and the U.S. Secretary of 
#Commerce on behalf of the United States.  All rights reserved.
_database_code_ICSD                165709
_audit_creation_date               2010/02/01
_chemical_name_systematic          'Sodium Tetrahydridoborate - Gamma'
_chemical_formula_structural       'Na (B H4)'
_chemical_formula_sum              'H4 B1 Na1'
_publ_section_title
;
Structural transition of Na B H4 under high pressure: ab initio 
calculations
;
loop_
_citation_id
_citation_journal_abbrev
_citation_year
_citation_journal_volume
_citation_page_first
_citation_page_last
_citation_journal_id_ASTM
primary 'Chemical Physics (Netherland)' 2009 362 135 139 CMPHC2
2 'Applied Physics Letters' 2005 87 261916-1 261916-3 APPLAB
_publ_author_name
;
Yu Fei;Sun Jiu Xun;Tian Rong Gang;Ji Guang Fu;Zhu Wenjun
;
_cell_length_a                     7.346
_cell_length_b                     4.048
_cell_length_c                     5.513
_cell_angle_alpha                  90.
_cell_angle_beta                   90.
_cell_angle_gamma                  90.
_cell_volume                       163.94
_cell_formula_units_Z              4
_symmetry_space_group_name_H-M     'P n m a'
_symmetry_Int_Tables_number        62
loop_
_symmetry_equiv_pos_site_id
_symmetry_equiv_pos_as_xyz
  1	'x+.5, y, -z+.5'
  2	'x, -y+.5, z'
  3	'-x+.5, y+.5, z+.5'
  4	'-x, -y, -z'
  5	'-x+.5, -y, z+.5'
  6	'-x, y+.5, -z'
  7	'x+.5, -y+.5, -z+.5'
  8	'x, y, z'
loop_
_atom_type_symbol
_atom_type_oxidation_number
B3+	3
H1-	-1
Na1+	1
loop_
_atom_site_label
_atom_site_type_symbol
_atom_site_symmetry_multiplicity
_atom_site_Wyckoff_symbol
_atom_site_fract_x
_atom_site_fract_y
_atom_site_fract_z
_atom_site_occupancy
_atom_site_attached_hydrogens
Na1 Na1+ 4 c 0.147 0.250 0.218 1. 0 
B1 B3+ 4 c 0.599 0.250 0.788 1. 0 
H1 H1- 4 c 0.459 0.250 0.893 1. 0 
H2 H1- 4 c 0.729 0.250 0.910 1. 0 
H3 H1- 8 d 0.393 0.991 0.351 1. 0 

#End of data_165709-ICSD


