data_245977-ICSD
#?2014 by Fachinformationszentrum Karlsruhe, and the U.S. Secretary of 
#Commerce on behalf of the United States.  All rights reserved.
_database_code_ICSD                245977
_audit_creation_date               2009/02/01
_chemical_name_systematic          'Dicesium Lithium Tribromide'
_chemical_formula_structural       'Cs2 Li Br3'
_chemical_formula_sum              'Br3 Cs2 Li1'
_publ_section_title
;
Ab initio prediction of the low-temperature phase diagrams in the 
systems CsX-LiX (X = F, Cl, Br, I)
;
loop_
_citation_id
_citation_journal_abbrev
_citation_year
_citation_journal_volume
_citation_journal_issue
_citation_page_first
_citation_page_last
_citation_journal_id_ASTM
primary 'Solid State Sciences' 2008 10 6 804 813 SSSCFJ
_publ_author_name
;
Pentin, I.V.;Schoen, J.C.;Jansen, M.
;
_cell_length_a                     25.88
_cell_length_b                     4.76
_cell_length_c                     8.56
_cell_angle_alpha                  91.32
_cell_angle_beta                   90.
_cell_angle_gamma                  90.
_cell_volume                       1054.22
_cell_formula_units_Z              4
_symmetry_space_group_name_H-M     'C 1 2/m 1'
_symmetry_Int_Tables_number        12
loop_
_symmetry_equiv_pos_site_id
_symmetry_equiv_pos_as_xyz
  1	'-x, y, -z'
  2	'-x, -y, -z'
  3	'x, -y, z'
  4	'x, y, z'
  5	'-x+.5, y+.5, -z'
  6	'-x+.5, -y+.5, -z'
  7	'x+.5, -y+.5, z'
  8	'x+.5, y+.5, z'
loop_
_atom_type_symbol
_atom_type_oxidation_number
Br1-	-1
Cs1+	1
Li1+	1
loop_
_atom_site_label
_atom_site_type_symbol
_atom_site_symmetry_multiplicity
_atom_site_Wyckoff_symbol
_atom_site_fract_x
_atom_site_fract_y
_atom_site_fract_z
_atom_site_occupancy
_atom_site_attached_hydrogens
Cs1 Cs1+ 4 i 0.99739 0 0.25 1. 0 
Cs2 Cs1+ 4 i 0.82304 0 0.74565 1. 0 
Li1 Li1+ 4 i 0.64893 0 0.75211 1. 0 
Br1 Br1- 4 i 0.58749 0 0.50213 1. 0 
Br2 Br1- 4 i 0.79626 0 0.25072 1. 0 
Br3 Br1- 4 i 0.58871 0 0.99837 1. 0 

#End of data_245977-ICSD


