data_161790-ICSD
#?2014 by Fachinformationszentrum Karlsruhe, and the U.S. Secretary of 
#Commerce on behalf of the United States.  All rights reserved.
_database_code_ICSD                161790
_audit_creation_date               2009/02/01
_chemical_name_systematic          'Aluminium Oxide - Kappa'
_chemical_formula_structural       'Al2 O3'
_chemical_formula_sum              'Al2 O3'
_publ_section_title
;
Calculation of the structural, electrical and optical properties of 
kappa-(Al2 O3) by density functional theory
;
loop_
_citation_id
_citation_journal_abbrev
_citation_year
_citation_journal_volume
_citation_journal_issue
_citation_page_first
_citation_page_last
_citation_journal_id_ASTM
primary 'Chinese Journal of Physics (Taipei)' 2008 46 2 170 180 CJOPAW
_publ_author_name
;
Mousavi, S.J.;Hosseini, S.M.;Abolhassani, M.R.;Sebt, S.A.
;
_cell_length_a                     4.8435
_cell_length_b                     8.2224
_cell_length_c                     9.0011
_cell_angle_alpha                  90.
_cell_angle_beta                   90.
_cell_angle_gamma                  90.
_cell_volume                       358.47
_cell_formula_units_Z              8
_symmetry_space_group_name_H-M     'P n a 21'
_symmetry_Int_Tables_number        33
loop_
_symmetry_equiv_pos_site_id
_symmetry_equiv_pos_as_xyz
  1	'x+.5, -y+.5, z'
  2	'-x+.5, y+.5, z+.5'
  3	'-x, -y, z+.5'
  4	'x, y, z'
loop_
_atom_type_symbol
_atom_type_oxidation_number
Al3+	3
O2-	-2
loop_
_atom_site_label
_atom_site_type_symbol
_atom_site_symmetry_multiplicity
_atom_site_Wyckoff_symbol
_atom_site_fract_x
_atom_site_fract_y
_atom_site_fract_z
_atom_site_occupancy
_atom_site_attached_hydrogens
Al1 Al3+ 4 a 0.6711 0.8340 0.0012 1. 0 
Al2 Al3+ 4 a 0.1755 0.3400 0.7884 1. 0 
Al3 Al3+ 4 a 0.8220 0.6395 0.6970 1. 0 
Al4 Al3+ 4 a 0.6621 0.4552 0.9885 1. 0 
O1 O2- 4 a 0.3310 0.8372 0.8999 1. 0 
O2 O2- 4 a 0.0311 0.4955 0.6322 1. 0 
O3 O2- 4 a 0.4800 0.6678 0.6451 1. 0 
O4 O2- 4 a 0.5203 0.6789 0.1308 1. 0 
O5 O2- 4 a 0.8613 0.3215 0.8615 1. 0 
O6 O2- 4 a 0.3376 0.4934 0.0015 1. 0 

#End of data_161790-ICSD


