data_159452-ICSD
#?2014 by Fachinformationszentrum Karlsruhe, and the U.S. Secretary of 
#Commerce on behalf of the United States.  All rights reserved.
_database_code_ICSD                159452
_audit_creation_date               2008/08/01
_chemical_name_systematic
;
Disodium Tetrahydridoberyllate - Alpha
;
_chemical_formula_structural       'Na2 (Be H4)'
_chemical_formula_sum              'H4 Be1 Na2'
_publ_section_title
;
First-principles calculation of structural, electronic and 
thermodynamic properties of Na2 Be H4
;
loop_
_citation_id
_citation_journal_abbrev
_citation_year
_citation_journal_volume
_citation_page_first
_citation_page_last
_citation_journal_id_ASTM
primary 'Physical Review, Serie 3. B - Condensed Matter (18,1978-)'
 2007 76 144104-1 144104-7 PRBMDO
_publ_author_name
;
Hu, C.-H.;Wang, Y.-M.;Chen, D.-M.;Xu, D.-S.;Yang, K.
;
_cell_length_a                     5.094
_cell_length_b                     5.002
_cell_length_c                     6.872
_cell_angle_alpha                  90.
_cell_angle_beta                   98.4633
_cell_angle_gamma                  90.
_cell_volume                       173.19
_cell_formula_units_Z              2
_symmetry_space_group_name_H-M     'P 1 21/m 1'
_symmetry_Int_Tables_number        11
loop_
_symmetry_equiv_pos_site_id
_symmetry_equiv_pos_as_xyz
  1	'x, -y+.5, z'
  2	'-x, -y, -z'
  3	'-x, y+.5, -z'
  4	'x, y, z'
loop_
_atom_type_symbol
_atom_type_oxidation_number
Be2+	2
H1-	-1
Na1+	1
loop_
_atom_site_label
_atom_site_type_symbol
_atom_site_symmetry_multiplicity
_atom_site_Wyckoff_symbol
_atom_site_fract_x
_atom_site_fract_y
_atom_site_fract_z
_atom_site_occupancy
_atom_site_attached_hydrogens
Na1 Na1+ 2 e 0.7341 0.250 0.5247 1. 0 
Na2 Na1+ 2 e 0.7311 0.250 0.0249 1. 0 
Be1 Be2+ 2 e 0.2777 0.250 0.2219 1. 0 
H1 H1- 2 e 0.0628 0.250 0.3368 1. 0 
H2 H1- 4 f 0.4451 0.4779 0.2654 1. 0 
H3 H1- 2 e 0.8138 0.750 0.9853 1. 0 

#End of data_159452-ICSD


