data_184901-ICSD
#?2014 by Fachinformationszentrum Karlsruhe, and the U.S. Secretary of 
#Commerce on behalf of the United States.  All rights reserved.
_database_code_ICSD                184901
_audit_creation_date               2013/02/01
_audit_update_record               2013/08/01
_chemical_name_systematic          'Dipotassium Hexatitanate'
_chemical_formula_structural       'K2 (Ti6 O13)'
_chemical_formula_sum              'K2 O13 Ti6'
_publ_section_title
;
Structural, electronic and elastic properties of potassium 
hexatitanate crystal from first-principles calculations
;
loop_
_citation_id
_citation_journal_abbrev
_citation_year
_citation_journal_volume
_citation_journal_issue
_citation_page_first
_citation_page_last
_citation_journal_id_ASTM
primary 'Physica B, Condensed Matter' 2012 407 14 2811 2815 PHYBE3
_publ_author_name
;
Hua Manyu;Li Yimin;Long Chungguang;Li Xia
;
_cell_length_a                     16.1529
_cell_length_b                     3.7801
_cell_length_c                     9.3388
_cell_angle_alpha                  90.
_cell_angle_beta                   101.1878
_cell_angle_gamma                  90.
_cell_volume                       559.39
_cell_formula_units_Z              2
_symmetry_space_group_name_H-M     'C 1 2/m 1'
_symmetry_Int_Tables_number        12
loop_
_symmetry_equiv_pos_site_id
_symmetry_equiv_pos_as_xyz
  1	'-x, y, -z'
  2	'-x, -y, -z'
  3	'x, -y, z'
  4	'x, y, z'
  5	'-x+.5, y+.5, -z'
  6	'-x+.5, -y+.5, -z'
  7	'x+.5, -y+.5, z'
  8	'x+.5, y+.5, z'
loop_
_atom_type_symbol
_atom_type_oxidation_number
K1+	1
O2-	-2
Ti4+	4
loop_
_atom_site_label
_atom_site_type_symbol
_atom_site_symmetry_multiplicity
_atom_site_Wyckoff_symbol
_atom_site_fract_x
_atom_site_fract_y
_atom_site_fract_z
_atom_site_occupancy
_atom_site_attached_hydrogens
K1 K1+ 4 i 0.4563 0 0.250 1. 0 
Ti1 Ti4+ 4 i 0.1138 0 0.0946 1. 0 
Ti2 Ti4+ 4 i 0.1729 0 0.4371 1. 0 
Ti3 Ti4+ 4 i 0.2326 0 0.7825 1. 0 
O1 O2- 2 a 0 0 0 1. 0 
O2 O2- 4 i 0.2394 0 0.2368 1. 0 
O3 O2- 4 i 0.0826 0 0.2854 1. 0 
O4 O2- 4 i 0.2957 0 0.5718 1. 0 
O5 O2- 4 i 0.1381 0 0.6115 1. 0 
O6 O2- 4 i 0.3571 0 0.8910 1. 0 
O7 O2- 4 i 0.1644 0 0.9095 1. 0 

#End of data_184901-ICSD


