data_165646-ICSD
#?2014 by Fachinformationszentrum Karlsruhe, and the U.S. Secretary of 
#Commerce on behalf of the United States.  All rights reserved.
_database_code_ICSD                165646
_audit_creation_date               2010/02/01
_chemical_name_systematic
;
Tetramagnesium Heptakis(tetrahydridoborate) - Borane (1/1)
;
_chemical_formula_structural       '(Mg4 (B H4)7) (B H3)'
_chemical_formula_sum              'H31 B8 Mg4'
_publ_section_title
;
A new phase in the decomposition of Mg (B H4)2: first-principles 
simulated annealing
;
loop_
_citation_id
_citation_journal_abbrev
_citation_year
_citation_journal_volume
_citation_page_first
_citation_page_last
_citation_journal_id_ASTM
primary 'Journal of Materials Chemistry' 2009 19 7081 7087 JMACEP
_publ_author_name
;
van Setten, M.J.;Lohstroh, W.;Fichtner, M.
;
_cell_length_a                     8.18356
_cell_length_b                     8.19847
_cell_length_c                     10.0119
_cell_angle_alpha                  90(1)
_cell_angle_beta                   90.447
_cell_angle_gamma                  90(1)
_cell_volume                       671.7
_cell_formula_units_Z              1
_symmetry_space_group_name_H-M     'P 1'
_symmetry_Int_Tables_number        1
loop_
_symmetry_equiv_pos_site_id
_symmetry_equiv_pos_as_xyz
  1	'x, y, z'
loop_
_atom_type_symbol
_atom_type_oxidation_number
B2+	2
B3+	3
H1-	-1
Mg2+	2
loop_
_atom_site_label
_atom_site_type_symbol
_atom_site_symmetry_multiplicity
_atom_site_Wyckoff_symbol
_atom_site_fract_x
_atom_site_fract_y
_atom_site_fract_z
_atom_site_occupancy
_atom_site_attached_hydrogens
Mg1 Mg2+ 1 a 0.8829168104 0.5096752365 0.2538872442 1. 0 
Mg2 Mg2+ 1 a 0.3858031089 0.9903026945 0.7519982901 1. 0 
Mg3 Mg2+ 1 a 0.8872754225 0.0059925223 0.0068404227 1. 0 
Mg4 Mg2+ 1 a 0.3853187880 0.4937478473 0.5018848641 1. 0 
B1 B3+ 1 a 0.1092566679 0.9943950250 0.8483045787 1. 0 
B2 B3+ 1 a 0.6548057383 0.9946579507 0.8556563786 1. 0 
B3 B3+ 1 a 0.8843897407 0.7829321378 0.1624827550 1. 0 
B4 B3+ 1 a 0.8827738440 0.2445602838 0.1484672315 1. 0 
B5 B3+ 1 a 0.1528081481 0.5037961347 0.3527316523 1. 0 
B6 B3+ 1 a 0.6142078953 0.5053441307 0.3516792034 1. 0 
B7 B3+ 1 a 0.3861824252 0.2557332995 0.6449803754 1. 0 
B8 B2+ 1 a 0.3860241191 0.7174012187 0.6578431983 1. 0 
H1 H1- 1 a 0.7244295058 0.1235537506 0.8803116701 1. 0 
H2 H1- 1 a 0.8857101049 0.7608563116 0.2831541560 1. 0 
H3 H1- 1 a 0.7571539231 0.1716856673 0.1193972254 1. 0 
H4 H1- 1 a 0.1340068539 0.5112534075 0.2316478432 1. 0 
H5 H1- 1 a 0.5404161448 0.6289768903 0.3831800452 1. 0 
H6 H1- 1 a 0.2595236584 0.3273698677 0.6164910404 1. 0 
H7 H1- 1 a 0.3833709289 0.8428235992 0.5903719046 1. 0 
H8 H1- 1 a 0.6394599660 0.9872597831 0.7342734689 1. 0 
H9 H1- 1 a 0.1159522773 0.9892944548 0.7275920522 1. 0 
H10 H1- 1 a 0.8834327610 0.2587859420 0.2700091252 1. 0 
H11 H1- 1 a 0.0114744200 0.8548940299 0.1369711073 1. 0 
H12 H1- 1 a 0.5434728031 0.3769087415 0.3741852599 1. 0 
H13 H1- 1 a 0.2258411090 0.6278851106 0.3851818309 1. 0 
H14 H1- 1 a 0.5125314708 0.6455753774 0.6304568970 1. 0 
H15 H1- 1 a 0.3881228628 0.2425999585 0.7666867304 1. 0 
H16 H1- 1 a 0.0891838581 0.8686668166 0.9088899816 1. 0 
H17 H1- 1 a 0.7264444029 0.8705033367 0.8905643944 1. 0 
H18 H1- 1 a 0.7589172402 0.8580745537 0.1370249202 1. 0 
H19 H1- 1 a 0.8810042212 0.3728936795 0.0850580764 1. 0 
H20 H1- 1 a 0.0927069860 0.1256321561 0.9015024915 1. 0 
H21 H1- 1 a 0.5247835131 0.9973692806 0.9186315551 1. 0 
H22 H1- 1 a 0.0103100919 0.1749673403 0.1203628055 1. 0 
H23 H1- 1 a 0.8822153641 0.6586931647 0.0936338934 1. 0 
H24 H1- 1 a 0.0266168798 0.5002190578 0.4184693221 1. 0 
H25 H1- 1 a 0.6314129778 0.5120259667 0.2306171941 1. 0 
H26 H1- 1 a 0.5127018455 0.3258231169 0.6148986974 1. 0 
H27 H1- 1 a 0.2598889640 0.6431842018 0.6324151921 1. 0 
H28 H1- 1 a 0.2249594898 0.3758135066 0.3748223467 1. 0 
H29 H1- 1 a 0.7413460737 0.5035077736 0.4178899937 1. 0 
H30 H1- 1 a 0.3880635940 0.7377661004 0.7787738793 1. 0 
H31 H1- 1 a 0.3842246076 0.1265985821 0.5825817032 1. 0 

#End of data_165646-ICSD


