data_245986-ICSD
#?2014 by Fachinformationszentrum Karlsruhe, and the U.S. Secretary of 
#Commerce on behalf of the United States.  All rights reserved.
_database_code_ICSD                245986
_audit_creation_date               2009/02/01
_audit_update_record               2012/02/01
_chemical_name_systematic          'Cesium Lithium Diiodide'
_chemical_formula_structural       'Cs Li I2'
_chemical_formula_sum              'Cs1 I2 Li1'
_publ_section_title
;
Ab initio prediction of the low-temperature phase diagrams in the 
systems CsX-LiX (X = F, Cl, Br, I)
;
loop_
_citation_id
_citation_journal_abbrev
_citation_year
_citation_journal_volume
_citation_journal_issue
_citation_page_first
_citation_page_last
_citation_journal_id_ASTM
primary 'Solid State Sciences' 2008 10 6 804 813 SSSCFJ
_publ_author_name
;
Pentin, I.V.;Schoen, J.C.;Jansen, M.
;
_cell_length_a                     4.96
_cell_length_b                     22.38
_cell_length_c                     14.06
_cell_angle_alpha                  90.
_cell_angle_beta                   90.
_cell_angle_gamma                  90.
_cell_volume                       1560.73
_cell_formula_units_Z              8
_symmetry_space_group_name_H-M     'C m c 21'
_symmetry_Int_Tables_number        36
loop_
_symmetry_equiv_pos_site_id
_symmetry_equiv_pos_as_xyz
  1	'x, -y, z+.5'
  2	'-x, -y, z+.5'
  3	'-x, y, z'
  4	'x, y, z'
  5	'x+.5, -y+.5, z+.5'
  6	'-x+.5, -y+.5, z+.5'
  7	'-x+.5, y+.5, z'
  8	'x+.5, y+.5, z'
loop_
_atom_type_symbol
_atom_type_oxidation_number
Cs1+	1
I1-	-1
Li1+	1
loop_
_atom_site_label
_atom_site_type_symbol
_atom_site_symmetry_multiplicity
_atom_site_Wyckoff_symbol
_atom_site_fract_x
_atom_site_fract_y
_atom_site_fract_z
_atom_site_occupancy
_atom_site_attached_hydrogens
Cs1 Cs1+ 4 a 0 0.34484 0.48582 1. 0 
Cs2 Cs1+ 4 a 0 0.50971 0.26219 1. 0 
Li1 Li1+ 4 a 0 0.86954 0.04859 1. 0 
Li2 Li1+ 4 a 0 0.27872 0.78453 1. 0 
I1 I1- 4 a 0 0.30871 0.98012 1. 0 
I2 I1- 4 a 0 0.14886 0.75584 1. 0 
I3 I1- 4 a 0 0.99680 0.00774 1. 0 
I4 I1- 4 a 0 0.83866 0.71686 1. 0 

#End of data_245986-ICSD


