data_185676-ICSD
#?2014 by Fachinformationszentrum Karlsruhe, and the U.S. Secretary of 
#Commerce on behalf of the United States.  All rights reserved.
_database_code_ICSD                185676
_audit_creation_date               2013/02/01
_chemical_name_systematic          'Magnesium Hexahydroxosilicate'
_chemical_formula_structural       'Mg (Si (O H)6)'
_chemical_formula_sum              'H6 Mg1 O6 Si1'
_publ_section_title
;
The 3.65 A phase Mg Si (O H)6: structural insights from DFT-
calculations and T-dependent IR spectroscopy
;
loop_
_citation_id
_citation_journal_abbrev
_citation_year
_citation_journal_volume
_citation_journal_issue
_citation_page_first
_citation_page_last
_citation_journal_id_ASTM
primary 'American Mineralogist' 2012 97 7 1043 1048 AMMIAY
_publ_author_name
;
Wunder, B.;Jahn, S.;Joch-Mueller, M.;Speziale, S.
;
_cell_length_a                     5.148
_cell_length_b                     5.252
_cell_length_c                     7.404
_cell_angle_alpha                  90
_cell_angle_beta                   89.88
_cell_angle_gamma                  90
_cell_volume                       200.18
_cell_formula_units_Z              2
_symmetry_space_group_name_H-M     'P 1 21 1'
_symmetry_Int_Tables_number        4
loop_
_symmetry_equiv_pos_site_id
_symmetry_equiv_pos_as_xyz
  1	'-x, y+.5, -z'
  2	'x, y, z'
loop_
_atom_type_symbol
_atom_type_oxidation_number
H1+	1
Mg2+	2
O2-	-2
Si4+	4
loop_
_atom_site_label
_atom_site_type_symbol
_atom_site_symmetry_multiplicity
_atom_site_Wyckoff_symbol
_atom_site_fract_x
_atom_site_fract_y
_atom_site_fract_z
_atom_site_occupancy
_atom_site_attached_hydrogens
Mg1 Mg2+ 2 a 0.74800 0.50000 0.24900 1. 0 
Si1 Si4+ 2 a 0.25100 0.99800 0.24900 1. 0 
O1 O2- 2 a 0.37300 0.98700 0.47800 1. 0 
O2 O2- 2 a 0.87000 0.52400 0.97900 1. 0 
O3 O2- 2 a 0.91000 0.80100 0.69400 1. 0 
O4 O2- 2 a 0.45600 0.65800 0.81700 1. 0 
O5 O2- 2 a 0.95100 0.83900 0.31400 1. 0 
O6 O2- 2 a 0.39800 0.69300 0.20000 1. 0 
H1 H1+ 2 a 0.48800 0.13300 0.49200 1. 0 
H2 H1+ 2 a 0.99200 0.38200 0.98900 1. 0 
H3 H1+ 2 a 0.27600 0.55400 0.23200 1. 0 
H4 H1+ 2 a 0.81300 0.96100 0.28400 1. 0 
H5 H1+ 2 a 0.91000 0.81500 0.56200 1. 0 
H6 H1+ 2 a 0.43500 0.65400 0.94900 1. 0 

#End of data_185676-ICSD


