data_245974-ICSD
#?2014 by Fachinformationszentrum Karlsruhe, and the U.S. Secretary of 
#Commerce on behalf of the United States.  All rights reserved.
_database_code_ICSD                245974
_audit_creation_date               2009/02/01
_chemical_name_systematic          'Cesium Dilithium Trichloride'
_chemical_formula_structural       'Cs Li2 Cl3'
_chemical_formula_sum              'Cl3 Cs1 Li2'
_publ_section_title
;
Ab initio prediction of the low-temperature phase diagrams in the 
systems CsX-LiX (X = F, Cl, Br, I)
;
loop_
_citation_id
_citation_journal_abbrev
_citation_year
_citation_journal_volume
_citation_journal_issue
_citation_page_first
_citation_page_last
_citation_journal_id_ASTM
primary 'Solid State Sciences' 2008 10 6 804 813 SSSCFJ
_publ_author_name
;
Pentin, I.V.;Schoen, J.C.;Jansen, M.
;
_cell_length_a                     5.58
_cell_length_b                     4.65
_cell_length_c                     12.85
_cell_angle_alpha                  90.
_cell_angle_beta                   90.
_cell_angle_gamma                  90.
_cell_volume                       333.42
_cell_formula_units_Z              2
_symmetry_space_group_name_H-M     'I m m m'
_symmetry_Int_Tables_number        71
loop_
_symmetry_equiv_pos_site_id
_symmetry_equiv_pos_as_xyz
  1	'x, y, -z'
  2	'x, -y, z'
  3	'-x, y, z'
  4	'-x, -y, -z'
  5	'-x, -y, z'
  6	'-x, y, -z'
  7	'x, -y, -z'
  8	'x, y, z'
  9	'x+.5, y+.5, -z+.5'
 10	'x+.5, -y+.5, z+.5'
 11	'-x+.5, y+.5, z+.5'
 12	'-x+.5, -y+.5, -z+.5'
 13	'-x+.5, -y+.5, z+.5'
 14	'-x+.5, y+.5, -z+.5'
 15	'x+.5, -y+.5, -z+.5'
 16	'x+.5, y+.5, z+.5'
loop_
_atom_type_symbol
_atom_type_oxidation_number
Cl1-	-1
Cs1+	1
Li1+	1
loop_
_atom_site_label
_atom_site_type_symbol
_atom_site_symmetry_multiplicity
_atom_site_Wyckoff_symbol
_atom_site_fract_x
_atom_site_fract_y
_atom_site_fract_z
_atom_site_occupancy
_atom_site_attached_hydrogens
Cs1 Cs1+ 2 c 0.5 0.5 0 1. 0 
Li1 Li1+ 4 i 0 0 0.80940 1. 0 
Cl1 Cl1- 2 a 0 0 0 1. 0 
Cl2 Cl1- 4 j 0.5 0 0.76555 1. 0 

#End of data_245974-ICSD


