data_290135-ICSD
#?2014 by Fachinformationszentrum Karlsruhe, and the U.S. Secretary of 
#Commerce on behalf of the United States.  All rights reserved.
_database_code_ICSD                290135
_audit_creation_date               2013/08/01
_chemical_name_systematic
;
Magnesium Triborate Pentahydroxide Pentahydrate
;
_chemical_formula_structural       'Mg (B3 O3) (O H)5 (H2 O)5'
_chemical_formula_sum              'H15 B3 Mg1 O13'
_chemical_name_mineral             Kurnakovite
_publ_section_title
;
Crystal structure refinements of borate dimorphs inderite and 
kurnakovite using 11B and 25Mg nuclear magnetic resonance and DFT 
calculations
;
loop_
_citation_id
_citation_journal_abbrev
_citation_year
_citation_journal_volume
_citation_journal_issue
_citation_page_first
_citation_page_last
_citation_journal_id_ASTM
primary 'American Mineralogist' 2012 97 11-12 1858 1865 AMMIAY
_publ_author_name
;
Bing Zhou;Michaelis, V.K.;Yuanming Pan;Yefeng Yao;Tait, K.T.;Hyde, 
B.C.;Wren, J.E.C.;Sherriff, B.L.;Kroeker, S.
;
_cell_length_a                     8.347897
_cell_length_b                     10.606796
_cell_length_c                     6.444697
_cell_angle_alpha                  98.846000
_cell_angle_beta                   108.981000
_cell_angle_gamma                  105.581000
_cell_volume                       501.24
_cell_formula_units_Z              2
_symmetry_space_group_name_H-M     'P -1'
_symmetry_Int_Tables_number        2
loop_
_symmetry_equiv_pos_site_id
_symmetry_equiv_pos_as_xyz
  1	'-x, -y, -z'
  2	'x, y, z'
loop_
_atom_type_symbol
_atom_type_oxidation_number
B3+	3
H1+	1
Mg2+	2
O2-	-2
loop_
_atom_site_label
_atom_site_type_symbol
_atom_site_symmetry_multiplicity
_atom_site_Wyckoff_symbol
_atom_site_fract_x
_atom_site_fract_y
_atom_site_fract_z
_atom_site_occupancy
_atom_site_attached_hydrogens
Mg1 Mg2+ 2 i 0.65279310 0.23159793 0.80249309 1. 0 
B1 B3+ 2 i 0.76772580 0.22680177 0.35193384 1. 0 
B2 B3+ 2 i 0.11344292 0.35239035 0.50099115 1. 0 
B3 B3+ 2 i 0.98261134 0.10408154 0.30491388 1. 0 
O1 O2- 2 i 0.92408922 0.31738581 0.92186902 1. 0 
O2 O2- 2 i 0.59946152 0.41207384 0.78390425 1. 0 
O3 O2- 2 i 0.38199785 0.13442785 0.66761664 1. 0 
O4 O2- 2 i 0.66903318 0.03261506 0.80857568 1. 0 
O5 O2- 2 i 0.64814779 0.18989498 0.47277139 1. 0 
O6 O2- 2 i 0.66987308 0.26603377 0.14461118 1. 0 
O7 O2- 2 i 0.80912846 0.10157395 0.26504609 1. 0 
O8 O2- 2 i 0.93461005 0.33299608 0.51025174 1. 0 
O9 O2- 2 i 0.14945680 0.44358415 0.35558734 1. 0 
O10 O2- 2 i 0.25619799 0.40461211 0.73603987 1. 0 
O11 O2- 2 i 0.13011494 0.22115838 0.40536865 1. 0 
O12 O2- 2 i 0.01500732 0.98592385 0.23999615 1. 0 
O13 O2- 2 i 0.28445458 0.23751323 0.04138957 1. 0 
H1 H1+ 2 i 0.01338844 0.37320451 0.07673812 1. 0 
H2 H1+ 2 i 0.96811022 0.33408081 0.79986755 1. 0 
H3 H1+ 2 i 0.66437282 0.47132522 0.71081122 1. 0 
H4 H1+ 2 i 0.47649848 0.41721622 0.74962385 1. 0 
H5 H1+ 2 i 0.29387802 0.17105338 0.57615645 1. 0 
H6 H1+ 2 i 0.31405308 0.04776180 0.68529142 1. 0 
H7 H1+ 2 i 0.77319352 0.02273026 0.77370955 1. 0 
H8 H1+ 2 i 0.70666871 0.03954083 0.97419080 1. 0 
H9 H1+ 2 i 0.53461427 0.11540352 0.37439477 1. 0 
H10 H1+ 2 i 0.54829315 0.25951731 0.13772009 1. 0 
H11 H1+ 2 i 0.11758687 0.52480617 0.40180073 1. 0 
H12 H1+ 2 i 0.27095056 0.49733528 0.80885441 1. 0 
H13 H1+ 2 i 0.90479331 0.90584006 0.14461559 1. 0 
H14 H1+ 2 i 0.24634418 0.26160975 0.16632009 1. 0 
H15 H1+ 2 i 0.27253161 0.30504864 0.95123809 1. 0 

#End of data_290135-ICSD


