data_168221-ICSD
#?2014 by Fachinformationszentrum Karlsruhe, and the U.S. Secretary of 
#Commerce on behalf of the United States.  All rights reserved.
_database_code_ICSD                168221
_audit_creation_date               2011/02/01
_chemical_name_systematic
;
Calcium Bis(tetrahydridoborate) - Alpha, F2dd
;
_chemical_formula_structural       'Ca (B H4)2'
_chemical_formula_sum              'H8 B2 Ca1'
_publ_section_title
;
Calcium borohydride for hydrogen storage: a computational study of Ca 
(B H4)2 crystal structures and the Ca B2 Hx intermediate
;
loop_
_citation_id
_citation_journal_abbrev
_citation_year
_citation_journal_volume
_citation_page_first
_citation_page_last
_citation_journal_id_ASTM
primary 'Journal of Physical Chemistry C' 2010 114 9503 9509 JPCCCK
_publ_author_name                  'Frankcombe, T.J.'
_cell_length_a                     8.7468
_cell_length_b                     13.1278
_cell_length_c                     7.4905
_cell_angle_alpha                  90.
_cell_angle_beta                   90.
_cell_angle_gamma                  90.
_cell_volume                       860.11
_cell_formula_units_Z              8
_symmetry_space_group_name_H-M     'F 2 d d'
_symmetry_Int_Tables_number        43
loop_
_symmetry_equiv_pos_site_id
_symmetry_equiv_pos_as_xyz
  1	'x+.25, -y+.25, z+.25'
  2	'x+.25, y+.25, -z+.25'
  3	'x, -y, -z'
  4	'x, y, z'
  5	'x+.25, -y+.75, z+.75'
  6	'x+.75, -y+.25, z+.75'
  7	'x+.75, -y+.75, z+.25'
  8	'x+.25, y+.75, -z+.75'
  9	'x+.75, y+.25, -z+.75'
 10	'x+.75, y+.75, -z+.25'
 11	'x, -y+.5, -z+.5'
 12	'x+.5, -y, -z+.5'
 13	'x+.5, -y+.5, -z'
 14	'x, y+.5, z+.5'
 15	'x+.5, y, z+.5'
 16	'x+.5, y+.5, z'
loop_
_atom_type_symbol
_atom_type_oxidation_number
B3+	3
Ca2+	2
H1-	-1
loop_
_atom_site_label
_atom_site_type_symbol
_atom_site_symmetry_multiplicity
_atom_site_Wyckoff_symbol
_atom_site_fract_x
_atom_site_fract_y
_atom_site_fract_z
_atom_site_occupancy
_atom_site_attached_hydrogens
Ca1 Ca2+ 8 a 0.00598 0 0 1. 0 
B1 B3+ 16 b 0.00582 0.22162 0.00011 1. 0 
H1 H1- 16 b 0.00587 0.16841 0.13521 1. 0 
H2 H1- 16 b 0.00623 0.16852 0.86486 1. 0 
H3 H1- 16 b 0.89266 0.27557 0.01079 1. 0 
H4 H1- 16 b 0.11854 0.27601 0.98963 1. 0 

#End of data_168221-ICSD


