data_168802-ICSD
#?2014 by Fachinformationszentrum Karlsruhe, and the U.S. Secretary of 
#Commerce on behalf of the United States.  All rights reserved.
_database_code_ICSD                168802
_audit_creation_date               2011/02/01
_chemical_name_systematic
;
Lithium Tetrahydridoborate - Rt, Hypothetical
;
_chemical_formula_structural       'Li (B H4)'
_chemical_formula_sum              'H4 B1 Li1'
_publ_section_title
;
First-principles determination of the ground-state structure of Li B 
H4
;
loop_
_citation_id
_citation_journal_abbrev
_citation_year
_citation_journal_volume
_citation_page_first
_citation_page_last
_citation_journal_id_ASTM
primary 'Physical Review Letters' 2010 104 215501-1 215501-4 PRLTAO
_publ_author_name                  'Tekin, A.;Caputo, R.;Zuettel, A.'
_cell_length_a                     8.484(20)
_cell_length_b                     4.348(20)
_cell_length_c                     5.750(20)
_cell_angle_alpha                  90.
_cell_angle_beta                   90.
_cell_angle_gamma                  90.
_cell_volume                       212.11
_cell_formula_units_Z              4
_symmetry_space_group_name_H-M     'P n m a'
_symmetry_Int_Tables_number        62
loop_
_symmetry_equiv_pos_site_id
_symmetry_equiv_pos_as_xyz
  1	'x+.5, y, -z+.5'
  2	'x, -y+.5, z'
  3	'-x+.5, y+.5, z+.5'
  4	'-x, -y, -z'
  5	'-x+.5, -y, z+.5'
  6	'-x, y+.5, -z'
  7	'x+.5, -y+.5, -z+.5'
  8	'x, y, z'
loop_
_atom_type_symbol
_atom_type_oxidation_number
B3+	3
H1-	-1
Li1+	1
loop_
_atom_site_label
_atom_site_type_symbol
_atom_site_symmetry_multiplicity
_atom_site_Wyckoff_symbol
_atom_site_fract_x
_atom_site_fract_y
_atom_site_fract_z
_atom_site_occupancy
_atom_site_attached_hydrogens
H1 H1- 8 d 0.78275 0.47829 0.18183 1. 0 
Li1 Li1+ 4 c 0.35630 0.75 -0.41874 1. 0 
B1 B3+ 4 c 0.86388 0.25 0.15149 1. 0 
H2 H1- 4 c 0.97034 0.25 0.29306 1. 0 
H3 H1- 4 c 0.91091 0.25 -0.04903 1. 0 

#End of data_168802-ICSD


