data_92750-ICSD
#?2014 by Fachinformationszentrum Karlsruhe, and the U.S. Secretary of 
#Commerce on behalf of the United States.  All rights reserved.
_database_code_ICSD                92750
_audit_creation_date               2003/04/01
_audit_update_record               2010/02/01
_chemical_name_systematic          'Magnesium Catena-silicate'
_chemical_formula_structural       'Mg (Si O3)'
_chemical_formula_sum              'Mg1 O3 Si1'
_chemical_name_mineral             'Clinoenstatite low'
_publ_section_title
;
Ab initio study of Mg Si O3 low-clinoenstatite at high pressure
;
loop_
_citation_id
_citation_journal_abbrev
_citation_year
_citation_journal_volume
_citation_page_first
_citation_page_last
_citation_journal_id_ASTM
primary 'American Mineralogist' 2001 86 762 766 AMMIAY
2 'Golden Book of Phase Transitions, Wroclaw' 2002 1 1 123 GBOPT5
_publ_author_name
;
Duan, W.-H.;Karki, B.B.;Wentzcovitch, R.M.;Gu, B.L.
;
_cell_length_a                     9.4876
_cell_length_b                     8.6682
_cell_length_c                     5.1050
_cell_angle_alpha                  90
_cell_angle_beta                   107.90
_cell_angle_gamma                  90
_cell_volume                       399.51
_cell_formula_units_Z              8
_symmetry_space_group_name_H-M     'P 1 21/c 1'
_symmetry_Int_Tables_number        14
loop_
_symmetry_equiv_pos_site_id
_symmetry_equiv_pos_as_xyz
  1	'x, -y+.5, z+.5'
  2	'-x, -y, -z'
  3	'-x, y+.5, -z+.5'
  4	'x, y, z'
loop_
_atom_type_symbol
_atom_type_oxidation_number
Mg2+	2
O2-	-2
Si4+	4
loop_
_atom_site_label
_atom_site_type_symbol
_atom_site_symmetry_multiplicity
_atom_site_Wyckoff_symbol
_atom_site_fract_x
_atom_site_fract_y
_atom_site_fract_z
_atom_site_occupancy
_atom_site_attached_hydrogens
Mg1 Mg2+ 4 e 0.2517 0.6557 0.2121 1. 0 
Mg2 Mg2+ 4 e 0.2572 0.0129 0.2094 1. 0 
Si1 Si4+ 4 e 0.0429 0.3424 0.2979 1. 0 
Si2 Si4+ 4 e 0.5554 0.8377 0.2239 1. 0 
O1 O2- 4 e 0.8642 0.3396 0.1891 1. 0 
O2 O2- 4 e 0.1239 0.5046 0.3185 1. 0 
O3 O2- 4 e 0.1082 0.2856 0.6249 1. 0 
O4 O2- 4 e 0.3758 0.8382 0.1176 1. 0 
O5 O2- 4 e 0.6353 0.9838 0.3944 1. 0 
O6 O2- 4 e 0.6091 0.6876 0.4418 1. 0 

#End of data_92750-ICSD


