data_51421-ICSD
#?2014 by Fachinformationszentrum Karlsruhe, and the U.S. Secretary of 
#Commerce on behalf of the United States.  All rights reserved.
_database_code_ICSD                51421
_audit_creation_date               2002/10/01
_audit_update_record               2008/02/01
_chemical_name_systematic          'Cadmium Aluminium Selenide'
_chemical_formula_structural       'Cd Al2 Se4'
_chemical_formula_sum              'Al2 Cd1 Se4'
_publ_section_title
;
Theoretical study of the ordered-vacancy semiconducting compound Cd 
Al2 Se4
;
loop_
_citation_id
_citation_journal_abbrev
_citation_year
_citation_journal_volume
_citation_journal_issue
_citation_page_first
_citation_page_last
_citation_journal_id_ASTM
primary 'Journal of Physics: Condensed Matter' 2001 13 8 1669 1684 JCOMEL
_publ_author_name                  'Fuentes-Cabrera, M.;Sankey, O.F.'
_cell_length_a                     5.67
_cell_length_b                     5.67
_cell_length_c                     10.59
_cell_angle_alpha                  90.
_cell_angle_beta                   90.
_cell_angle_gamma                  90.
_cell_volume                       340.46
_cell_formula_units_Z              2
_symmetry_space_group_name_H-M     'I -4'
_symmetry_Int_Tables_number        82
loop_
_symmetry_equiv_pos_site_id
_symmetry_equiv_pos_as_xyz
  1	'-y, x, -z'
  2	'y, -x, -z'
  3	'-x, -y, z'
  4	'x, y, z'
  5	'-y+.5, x+.5, -z+.5'
  6	'y+.5, -x+.5, -z+.5'
  7	'-x+.5, -y+.5, z+.5'
  8	'x+.5, y+.5, z+.5'
loop_
_atom_type_symbol
_atom_type_oxidation_number
Al3+	3
Cd2+	2
Se2-	-2
loop_
_atom_site_label
_atom_site_type_symbol
_atom_site_symmetry_multiplicity
_atom_site_Wyckoff_symbol
_atom_site_fract_x
_atom_site_fract_y
_atom_site_fract_z
_atom_site_occupancy
_atom_site_attached_hydrogens
Cd1 Cd2+ 2 a 0 0 0 1. 0 
Al1 Al3+ 2 b 0 0 0.5 1. 0 
Al2 Al3+ 2 c 0 0.5 0.25 1. 0 
Se1 Se2- 8 g 0.276 0.259 0.14 1. 0 

#End of data_51421-ICSD


