data_186523-ICSD
#?2014 by Fachinformationszentrum Karlsruhe, and the U.S. Secretary of 
#Commerce on behalf of the United States.  All rights reserved.
_database_code_ICSD                186523
_audit_creation_date               2013/08/01
_chemical_name_systematic          'Lithium Iron Silicate'
_chemical_formula_structural       'Li Fe (Si O4)'
_chemical_formula_sum              'Fe1 Li1 O4 Si1'
_publ_section_title
;
Structural properties and energetics of Li2 Fe Si O4 polymorphs and 
their delithiated products from first-principles
;
loop_
_citation_id
_citation_journal_abbrev
_citation_year
_citation_journal_volume
_citation_journal_issue
_citation_page_first
_citation_page_last
_citation_journal_id_ASTM
primary 'Physical Chemistry Chemical Physics' 2012 14 20 7346 7351 PPCPFQ
_publ_author_name
;
Zhang, P.;Hu, C.H.;Wu, S.Q.;Zhu, Z.Z.;Yang, Y.
;
_cell_length_a                     5.9577
_cell_length_b                     11.3231
_cell_length_c                     5.2627
_cell_angle_alpha                  90.
_cell_angle_beta                   90.
_cell_angle_gamma                  90.
_cell_volume                       355.02
_cell_formula_units_Z              4
_symmetry_space_group_name_H-M     'P 1'
_symmetry_Int_Tables_number        1
loop_
_symmetry_equiv_pos_site_id
_symmetry_equiv_pos_as_xyz
  1	'x, y, z'
loop_
_atom_type_symbol
_atom_type_oxidation_number
Fe3+	3
Li1+	1
O2-	-2
Si4+	4
loop_
_atom_site_label
_atom_site_type_symbol
_atom_site_symmetry_multiplicity
_atom_site_Wyckoff_symbol
_atom_site_fract_x
_atom_site_fract_y
_atom_site_fract_z
_atom_site_occupancy
_atom_site_attached_hydrogens
Li1 Li1+ 1 a 0.0150 0.3313 0.1913 1. 0 
Li2 Li1+ 1 a 0.0150 0.8313 0.3086 1. 0 
Li3 Li1+ 1 a 0.5150 0.6686 0.8086 1. 0 
Li4 Li1+ 1 a 0.5150 0.1686 0.6913 1. 0 
Fe1 Fe3+ 1 a 0.2418 0.5759 0.1857 1. 0 
Fe2 Fe3+ 1 a 0.7418 0.4240 0.8143 1. 0 
Fe3 Fe3+ 1 a 0.7418 0.9240 0.6857 1. 0 
Fe4 Fe3+ 1 a 0.2418 0.0759 0.3143 1. 0 
Si1 Si4+ 1 a 0.2498 0.4146 0.6863 1. 0 
Si2 Si4+ 1 a 0.7498 0.5854 0.3136 1. 0 
Si3 Si4+ 1 a 0.7498 0.0854 0.1863 1. 0 
Si4 Si4+ 1 a 0.2498 0.9146 0.8136 1. 0 
O1 O2- 1 a 0.2253 0.4359 0.3778 1. 0 
O2 O2- 1 a 0.7253 0.5641 0.6221 1. 0 
O3 O2- 1 a 0.7253 0.0641 0.8778 1. 0 
O4 O2- 1 a 0.2253 0.9359 0.1221 1. 0 
O5 O2- 1 a 0.2729 0.5425 0.8347 1. 0 
O6 O2- 1 a 0.7729 0.4575 0.1652 1. 0 
O7 O2- 1 a 0.7729 0.9575 0.3347 1. 0 
O8 O2- 1 a 0.2729 0.0425 0.6652 1. 0 
O9 O2- 1 a 0.0231 0.3464 0.7892 1. 0 
O10 O2- 1 a 0.9766 0.6647 0.2534 1. 0 
O11 O2- 1 a 0.9766 0.1647 0.2465 1. 0 
O12 O2- 1 a 0.0231 0.8464 0.7107 1. 0 
O13 O2- 1 a 0.5231 0.6535 0.2107 1. 0 
O14 O2- 1 a 0.4766 0.3352 0.7465 1. 0 
O15 O2- 1 a 0.4766 0.8352 0.7534 1. 0 
O16 O2- 1 a 0.5231 0.1535 0.2892 1. 0 

#End of data_186523-ICSD


