data_163893-ICSD
#?2014 by Fachinformationszentrum Karlsruhe, and the U.S. Secretary of 
#Commerce on behalf of the United States.  All rights reserved.
_database_code_ICSD                163893
_audit_creation_date               2009/08/01
_chemical_name_systematic
;
Magnesium Catena-silicate - Hp P21cn
;
_chemical_formula_structural       'Mg (Si O3)'
_chemical_formula_sum              'Mg1 O3 Si1'
_chemical_name_mineral             Protoenstatite
_publ_section_title
;
Phase behavior of protoenstatite at high pressure studied by 
atomistic simulations
;
loop_
_citation_id
_citation_journal_abbrev
_citation_year
_citation_journal_volume
_citation_page_first
_citation_page_last
_citation_journal_id_ASTM
primary 'American Mineralogist' 2009 94 950 956 AMMIAY
_publ_author_name                  'Jahn, S.;Martonak, R.'
_cell_length_a                     9.039
_cell_length_b                     8.695
_cell_length_c                     5.089
_cell_angle_alpha                  90.
_cell_angle_beta                   90.
_cell_angle_gamma                  90.
_cell_volume                       399.97
_cell_formula_units_Z              8
_symmetry_space_group_name_H-M     'P 21 c n'
_symmetry_Int_Tables_number        33
loop_
_symmetry_equiv_pos_site_id
_symmetry_equiv_pos_as_xyz
  1	'x, -y+.5, z+.5'
  2	'x+.5, y+.5, -z+.5'
  3	'x+.5, -y, -z'
  4	'x, y, z'
loop_
_atom_type_symbol
_atom_type_oxidation_number
Mg2+	2
O2-	-2
Si4+	4
loop_
_atom_site_label
_atom_site_type_symbol
_atom_site_symmetry_multiplicity
_atom_site_Wyckoff_symbol
_atom_site_fract_x
_atom_site_fract_y
_atom_site_fract_z
_atom_site_occupancy
_atom_site_attached_hydrogens
O1 O2- 4 a 0.1210 -0.1636 0.0589 1. 0 
O2 O2- 4 a 0.3769 -0.0040 0.1056 1. 0 
O3 O2- 4 a 0.3578 0.7109 0.2760 1. 0 
O4 O2- 4 a 0.8784 0.6587 0.8751 1. 0 
O5 O2- 4 a 0.6214 0.5103 0.9587 1. 0 
O6 O2- 4 a 0.6464 0.7017 0.5622 1. 0 
Si1 Si4+ 4 a 0.2967 -0.1613 0.0684 1. 0 
Si2 Si4+ 4 a 0.7019 0.6604 0.8620 1. 0 
Mg1 Mg2+ 4 a 0.9975 -0.1539 0.7160 1. 0 
Mg2 Mg2+ 4 a 0.0060 0.0127 0.2151 1. 0 

#End of data_163893-ICSD


