data_158251-ICSD
#?2014 by Fachinformationszentrum Karlsruhe, and the U.S. Secretary of 
#Commerce on behalf of the United States.  All rights reserved.
_database_code_ICSD                158251
_audit_creation_date               2008/02/01
_chemical_name_systematic          'Sodium Magnesium Hydride'
_chemical_formula_structural       'Na Mg H3'
_chemical_formula_sum              'H3 Mg1 Na1'
_publ_section_title
;
A new series of high hydrogen content hydrogen-storage materials - a 
theoretical prediction
;
loop_
_citation_id
_citation_journal_abbrev
_citation_year
_citation_journal_volume
_citation_page_first
_citation_page_last
_citation_journal_id_ASTM
primary 'Journal of Alloys and Compounds' 2007 446 44 47 JALCEU
_publ_author_name
;
Vajeeston, P.;Ravindran, P.;Fjellvag, H.
;
_cell_length_a                     5.4525
_cell_length_b                     7.6952
_cell_length_c                     5.3683
_cell_angle_alpha                  90.
_cell_angle_beta                   90.
_cell_angle_gamma                  90.
_cell_volume                       225.24
_cell_formula_units_Z              4
_symmetry_space_group_name_H-M     'P n m a'
_symmetry_Int_Tables_number        62
loop_
_symmetry_equiv_pos_site_id
_symmetry_equiv_pos_as_xyz
  1	'x+.5, y, -z+.5'
  2	'x, -y+.5, z'
  3	'-x+.5, y+.5, z+.5'
  4	'-x, -y, -z'
  5	'-x+.5, -y, z+.5'
  6	'-x, y+.5, -z'
  7	'x+.5, -y+.5, -z+.5'
  8	'x, y, z'
loop_
_atom_type_symbol
_atom_type_oxidation_number
H1-	-1
Mg2+	2
Na1+	1
loop_
_atom_site_label
_atom_site_type_symbol
_atom_site_symmetry_multiplicity
_atom_site_Wyckoff_symbol
_atom_site_fract_x
_atom_site_fract_y
_atom_site_fract_z
_atom_site_occupancy
_atom_site_attached_hydrogens
Na1 Na1+ 4 c 0.0209 0.250 0.006 1. 0 
Mg1 Mg2+ 4 b 0 0 0.5 1. 0 
H1 H1- 4 c 0.503 0.250 0.093 1. 0 
H2 H1- 8 d 0.304 0.065 0.761 1. 0 

#End of data_158251-ICSD


