data_163866-ICSD
#?2014 by Fachinformationszentrum Karlsruhe, and the U.S. Secretary of 
#Commerce on behalf of the United States.  All rights reserved.
_database_code_ICSD                163866
_audit_creation_date               2009/08/01
_chemical_name_systematic          'Sodium Trifluorocadmate'
_chemical_formula_structural       'Na (Cd F3)'
_chemical_formula_sum              'Cd1 F3 Na1'
_publ_section_title                'First-principles study of Na Cd F3'
loop_
_citation_id
_citation_journal_abbrev
_citation_year
_citation_journal_volume
_citation_journal_issue
_citation_page_first
_citation_page_last
_citation_journal_id_ASTM
primary 'Physica Status Solidi B - Basic Solid State Physics'
 2009 246 6 1334 1339 PSSBBD
_publ_author_name                  'Akkus, H.;Erdinc, B.'
_cell_length_a                     6.1803
_cell_length_b                     6.1803
_cell_length_c                     6.1803
_cell_angle_alpha                  56.810
_cell_angle_beta                   56.810
_cell_angle_gamma                  56.810
_cell_volume                       154.63
_cell_formula_units_Z              2
_symmetry_space_group_name_H-M     'R 3 c R'
_symmetry_Int_Tables_number        161
loop_
_symmetry_equiv_pos_site_id
_symmetry_equiv_pos_as_xyz
  1	'z+.5, y+.5, x+.5'
  2	'z, x, y'
  3	'x+.5, z+.5, y+.5'
  4	'y, z, x'
  5	'y+.5, x+.5, z+.5'
  6	'x, y, z'
loop_
_atom_type_symbol
_atom_type_oxidation_number
Cd2+	2
F1-	-1
Na1+	1
loop_
_atom_site_label
_atom_site_type_symbol
_atom_site_symmetry_multiplicity
_atom_site_Wyckoff_symbol
_atom_site_fract_x
_atom_site_fract_y
_atom_site_fract_z
_atom_site_occupancy
_atom_site_attached_hydrogens
Na1 Na1+ 2 a 0.292 0.292 0.292 1. 0 
Cd1 Cd2+ 2 a 0.002 0.002 0.002 1. 0 
F1 F1- 6 b 0.891 0.609 0.202 1. 0 

#End of data_163866-ICSD


