data_66800-ICSD
#?2014 by Fachinformationszentrum Karlsruhe, and the U.S. Secretary of 
#Commerce on behalf of the United States.  All rights reserved.
_database_code_ICSD                66800
_audit_creation_date               1996/10/14
_audit_update_record               1998/06/26
_chemical_name_systematic          'Aluminium Oxide Hydroxide'
_chemical_formula_structural       'Al O (O H)'
_chemical_formula_sum              'H1 Al1 O2'
_chemical_name_mineral             Diaspore
_publ_section_title
;
Ab initio total energy study of brucite, diaspore and hypothetical 
hydrous wadsleyite
;
loop_
_citation_id
_citation_journal_abbrev
_citation_year
_citation_journal_volume
_citation_page_first
_citation_page_last
_citation_journal_id_ASTM
primary 'Physics and Chemistry of Minerals' 1995 22 461 467 PCMIDU
_publ_author_name
;
Winkler, B.;Milman, V.;Hennion, B.;Payne, M.C.;Lee, M.-H.;Lin, J.S.
;
_cell_length_a                     4.401(1)
_cell_length_b                     9.421(4)
_cell_length_c                     2.845(1)
_cell_angle_alpha                  90.
_cell_angle_beta                   90.
_cell_angle_gamma                  90.
_cell_volume                       117.96
_cell_formula_units_Z              4
_symmetry_space_group_name_H-M     'P b n m'
_symmetry_Int_Tables_number        62
loop_
_symmetry_equiv_pos_site_id
_symmetry_equiv_pos_as_xyz
  1	'-x+.5, y+.5, z'
  2	'x, y, -z+.5'
  3	'x+.5, -y+.5, z+.5'
  4	'-x, -y, -z'
  5	'x+.5, -y+.5, -z'
  6	'-x, -y, z+.5'
  7	'-x+.5, y+.5, -z+.5'
  8	'x, y, z'
loop_
_atom_type_symbol
_atom_type_oxidation_number
Al3+	3
H1+	1
O2-	-2
loop_
_atom_site_label
_atom_site_type_symbol
_atom_site_symmetry_multiplicity
_atom_site_Wyckoff_symbol
_atom_site_fract_x
_atom_site_fract_y
_atom_site_fract_z
_atom_site_occupancy
_atom_site_attached_hydrogens
Al1 Al3+ 4 c 0.0517 0.856 0.25 1. 0 
O1 O2- 4 c 0.6998 0.1953 0.25 1. 0 
O2 O2- 4 c 0.1914 0.0566 0.25 1. 0 
H1 H1+ 4 c 0.4036 0.0912 0.25 1. 0 

#End of data_66800-ICSD


