data_187435-ICSD
#?2014 by Fachinformationszentrum Karlsruhe, and the U.S. Secretary of 
#Commerce on behalf of the United States.  All rights reserved.
_database_code_ICSD                187435
_audit_creation_date               2013/08/01
_chemical_name_systematic          'Magnesium Bis(tetrahydridoborate)'
_chemical_formula_structural       'Mg (B H4)2'
_chemical_formula_sum              'H8 B2 Mg1'
_publ_section_title
;
Ab initio crystal structure prediction by combining symmetry analysis 
representations and total energy calculations. An insight into the 
structure of Mg (B H4)2
;
loop_
_citation_id
_citation_journal_abbrev
_citation_year
_citation_journal_volume
_citation_journal_issue
_citation_page_first
_citation_page_last
_citation_journal_id_ASTM
primary 'Physical Chemistry Chemical Physics' 2013 15 5 1471 1480 PPCPFQ
_publ_author_name
;
Caputo, Riccarda;Kupczak, Arkadiusz;Sikora, Wieslawa;Tekin, Adem
;
_cell_length_a                     11.546
_cell_length_b                     11.686
_cell_length_c                     20.997
_cell_angle_alpha                  90.
_cell_angle_beta                   90.
_cell_angle_gamma                  90.
_cell_volume                       2833.05
_cell_formula_units_Z              16
_symmetry_space_group_name_H-M     'C 2 2 21'
_symmetry_Int_Tables_number        20
loop_
_symmetry_equiv_pos_site_id
_symmetry_equiv_pos_as_xyz
  1	'-x, y, -z+.5'
  2	'-x, -y, z+.5'
  3	'x, -y, -z'
  4	'x, y, z'
  5	'-x+.5, y+.5, -z+.5'
  6	'-x+.5, -y+.5, z+.5'
  7	'x+.5, -y+.5, -z'
  8	'x+.5, y+.5, z'
loop_
_atom_type_symbol
_atom_type_oxidation_number
B3+	3
H1-	-1
Mg2+	2
loop_
_atom_site_label
_atom_site_type_symbol
_atom_site_symmetry_multiplicity
_atom_site_Wyckoff_symbol
_atom_site_fract_x
_atom_site_fract_y
_atom_site_fract_z
_atom_site_occupancy
_atom_site_attached_hydrogens
Mg1 Mg2+ 4 a 0 0 0 1. 0 
Mg2 Mg2+ 8 c 0.250 0.250 0.125 1. 0 
Mg3 Mg2+ 4 b 0 0.5 0.250 1. 0 
B1 B3+ 8 c 0.3653 0.3669 0.0518 1. 0 
H1 H1- 8 c 0.0718 0.0671 0.5813 1. 0 
H2 H1- 8 c 0.3722 0.3721 0.4938 1. 0 
H3 H1- 8 c 0.2347 0.3927 0.1849 1. 0 
H4 H1- 8 c 0.3953 0.2301 0.1835 1. 0 
B2 B3+ 8 c 0.1347 0.1330 0.0519 1. 0 
B3 B3+ 8 c 0.1348 0.3670 0.1983 1. 0 
B4 B3+ 8 c 0.3654 0.1331 0.1982 1. 0 
H5 H1- 8 c 0.0719 0.0668 0.0814 1. 0 
H6 H1- 8 c 0.0720 0.4331 0.1687 1. 0 
H7 H1- 8 c 0.4283 0.0670 0.1687 1. 0 
H8 H1- 8 c 0.1278 0.1278 0.4937 1. 0 
H9 H1- 8 c 0.1279 0.3723 0.2564 1. 0 
H10 H1- 8 c 0.3725 0.1279 0.2563 1. 0 
H11 H1- 8 c 0.2656 0.1076 0.1848 1. 0 
H12 H1- 8 c 0.2654 0.3926 0.0653 1. 0 
H13 H1- 8 c 0.2346 0.1076 0.0653 1. 0 
H14 H1- 8 c 0.1050 0.2700 0.1836 1. 0 
H15 H1- 8 c 0.1048 0.2300 0.0667 1. 0 
H16 H1- 8 c 0.3950 0.2698 0.0665 1. 0 

#End of data_187435-ICSD


