data_187571-ICSD
#?2014 by Fachinformationszentrum Karlsruhe, and the U.S. Secretary of 
#Commerce on behalf of the United States.  All rights reserved.
_database_code_ICSD                187571
_audit_creation_date               2013/08/01
_chemical_name_systematic
;
Sodium Potassium Aluminosilicate Hydroxide (2/2/12/8)
;
_chemical_formula_structural       'Na2 K2 (Al12 Si12 O40 (O H)8)'
_chemical_formula_sum              'H8 Al12 K2 Na2 O48 Si12'
_chemical_name_mineral             Muscovite-paragonite
_publ_section_title
;
Computational study of the elastic behavior of the 2M1 muscovite-
paragonite series
;
loop_
_citation_id
_citation_journal_abbrev
_citation_year
_citation_journal_volume
_citation_journal_issue
_citation_page_first
_citation_page_last
_citation_journal_id_ASTM
primary 'American Mineralogist' 2013 98 4 651 664 AMMIAY
_publ_author_name
;
Hernandez-Haro, N.;Ortega-Castro, J.;Perez Del Valle, C.;Munoz-
Santiburcio, D.;Sainz-Diaz, C.I.;Hernandez-Laguna, A.
;
_cell_length_a                     5.16042
_cell_length_b                     8.97536
_cell_length_c                     19.65332
_cell_angle_alpha                  90.00014
_cell_angle_beta                   95.55119
_cell_angle_gamma                  89.99999
_cell_volume                       906.01
_cell_formula_units_Z              1
_symmetry_space_group_name_H-M     'P 1'
_symmetry_Int_Tables_number        1
loop_
_symmetry_equiv_pos_site_id
_symmetry_equiv_pos_as_xyz
  1	'x, y, z'
loop_
_atom_type_symbol
_atom_type_oxidation_number
Al3+	3
H1+	1
K1+	1
Na1+	1
O2-	-2
Si4+	4
loop_
_atom_site_label
_atom_site_type_symbol
_atom_site_symmetry_multiplicity
_atom_site_Wyckoff_symbol
_atom_site_fract_x
_atom_site_fract_y
_atom_site_fract_z
_atom_site_occupancy
_atom_site_attached_hydrogens
Na1 Na1+ 1 a 0.50000 0.42422 0.75000 1.0000 0 
Al1 Al3+ 1 a 0.24741 0.91448 0.50086 1.0000 0 
Si1 Si4+ 1 a 0.46002 0.07123 0.63874 1.0000 0 
Al2 Al3+ 1 a 0.46650 0.73810 0.63958 1.0000 0 
O1 O2- 1 a 0.45876 0.06201 0.55487 1.0000 0 
O2 O2- 1 a 0.38300 0.74968 0.55080 1.0000 0 
O3 O2- 1 a 0.45486 0.43407 0.55175 1.0000 0 
O4 O2- 1 a 0.40690 0.91464 0.67488 1.0000 0 
O5 O2- 1 a 0.25503 0.19978 0.66358 1.0000 0 
O6 O2- 1 a 0.75103 0.12985 0.67220 1.0000 0 
H1 H1+ 1 a 0.35961 0.34092 0.55448 1.0000 0 
Al3 Al3+ 1 a 0.75259 0.91449 -0.00086 1.0000 0 
Si2 Si4+ 1 a 0.53998 0.07123 -0.13874 1.0000 0 
Al4 Al3+ 1 a 0.53350 0.73810 -0.13958 1.0000 0 
O7 O2- 1 a 0.54124 0.06202 -0.05487 1.0000 0 
O8 O2- 1 a 0.61700 0.74968 -0.05080 1.0000 0 
O9 O2- 1 a 0.54513 0.43408 -0.05175 1.0000 0 
O10 O2- 1 a 0.59310 0.91464 -0.17488 1.0000 0 
O11 O2- 1 a 0.74497 0.19977 -0.16358 1.0000 0 
O12 O2- 1 a 0.24897 0.12985 -0.17220 1.0000 0 
H2 H1+ 1 a 0.64038 0.34093 -0.05448 1.0000 0 
Na2 Na1+ 1 a 0.50000 0.57577 0.25000 1.0000 0 
Al5 Al3+ 1 a 0.75258 0.08550 0.49914 1.0000 0 
Si3 Si4+ 1 a 0.53998 0.92876 0.36126 1.0000 0 
Al6 Al3+ 1 a 0.53349 0.26190 0.36042 1.0000 0 
O13 O2- 1 a 0.54123 0.93797 0.44513 1.0000 0 
O14 O2- 1 a 0.61698 0.25030 0.44921 1.0000 0 
O15 O2- 1 a 0.54509 0.56588 0.44825 1.0000 0 
O16 O2- 1 a 0.59310 0.08536 0.32512 1.0000 0 
O17 O2- 1 a 0.74497 0.80022 0.33642 1.0000 0 
O18 O2- 1 a 0.24896 0.87014 0.32781 1.0000 0 
H3 H1+ 1 a 0.64035 0.65903 0.44551 1.0000 0 
Al7 Al3+ 1 a 0.24742 0.08550 0.00086 1.0000 0 
Si4 Si4+ 1 a 0.46002 0.92876 0.13874 1.0000 0 
Al8 Al3+ 1 a 0.46651 0.26190 0.13958 1.0000 0 
O19 O2- 1 a 0.45877 0.93797 0.05487 1.0000 0 
O20 O2- 1 a 0.38302 0.25030 0.05080 1.0000 0 
O21 O2- 1 a 0.45489 0.56590 0.05175 1.0000 0 
O22 O2- 1 a 0.40690 0.08536 0.17488 1.0000 0 
O23 O2- 1 a 0.25503 0.80022 0.16358 1.0000 0 
O24 O2- 1 a 0.75104 0.87014 0.17220 1.0000 0 
H4 H1+ 1 a 0.35963 0.65905 0.05448 1.0000 0 
K1 K1+ 1 a 0.00000 0.90826 0.75000 1.0000 0 
Al9 Al3+ 1 a 0.74609 0.41655 0.49966 1.0000 0 
Si5 Si4+ 1 a 0.98488 0.56894 0.64040 1.0000 0 
Si6 Si4+ 1 a 0.95004 0.24534 0.63843 1.0000 0 
O25 O2- 1 a 0.96680 0.55206 0.55598 1.0000 0 
O26 O2- 1 a 0.90225 0.24989 0.55517 1.0000 0 
O27 O2- 1 a 0.95688 0.94298 0.55298 1.0000 0 
O28 O2- 1 a 0.89158 0.40773 0.67308 1.0000 0 
O29 O2- 1 a 0.79778 0.70314 0.66110 1.0000 0 
O30 O2- 1 a 0.27940 0.59995 0.67607 1.0000 0 
H5 H1+ 1 a 0.87459 0.85289 0.56829 1.0000 0 
Al10 Al3+ 1 a 0.25390 0.41656 0.00034 1.0000 0 
Si7 Si4+ 1 a 0.01512 0.56894 -0.14040 1.0000 0 
Si8 Si4+ 1 a 0.04995 0.24534 -0.13843 1.0000 0 
O31 O2- 1 a 0.03319 0.55206 -0.05598 1.0000 0 
O32 O2- 1 a 0.09775 0.24990 -0.05517 1.0000 0 
O33 O2- 1 a 0.04312 0.94298 -0.05298 1.0000 0 
O34 O2- 1 a 0.10842 0.40773 -0.17308 1.0000 0 
O35 O2- 1 a 0.20222 0.70314 -0.16110 1.0000 0 
O36 O2- 1 a 0.72060 0.59995 -0.17607 1.0000 0 
H6 H1+ 1 a 0.12541 0.85289 -0.06829 1.0000 0 
K2 K1+ 1 a 0.00000 0.09174 0.25000 1.0000 0 
Al11 Al3+ 1 a 0.25388 0.58342 0.50034 1.0000 0 
Si9 Si4+ 1 a 0.01511 0.43106 0.35960 1.0000 0 
Si10 Si4+ 1 a 0.04995 0.75465 0.36157 1.0000 0 
O37 O2- 1 a 0.03316 0.44793 0.44402 1.0000 0 
O38 O2- 1 a 0.09774 0.75009 0.44483 1.0000 0 
O39 O2- 1 a 0.04311 0.05701 0.44702 1.0000 0 
O40 O2- 1 a 0.10842 0.59226 0.32693 1.0000 0 
O41 O2- 1 a 0.20221 0.29686 0.33890 1.0000 0 
O42 O2- 1 a 0.72059 0.40005 0.32393 1.0000 0 
H7 H1+ 1 a 0.12540 0.14710 0.43171 1.0000 0 
Al12 Al3+ 1 a 0.74612 0.58343 -0.00034 1.0000 0 
Si11 Si4+ 1 a 0.98489 0.43106 0.14040 1.0000 0 
Si12 Si4+ 1 a 0.95005 0.75465 0.13843 1.0000 0 
O43 O2- 1 a 0.96683 0.44793 0.05598 1.0000 0 
O44 O2- 1 a 0.90226 0.75010 0.05517 1.0000 0 
O45 O2- 1 a 0.95688 0.05701 0.05298 1.0000 0 
O46 O2- 1 a 0.89158 0.59226 0.17307 1.0000 0 
O47 O2- 1 a 0.79779 0.29686 0.16110 1.0000 0 
O48 O2- 1 a 0.27941 0.40005 0.17607 1.0000 0 
H8 H1+ 1 a 0.87460 0.14710 0.06829 1.0000 0 

#End of data_187571-ICSD


