data_187576-ICSD
#?2014 by Fachinformationszentrum Karlsruhe, and the U.S. Secretary of 
#Commerce on behalf of the United States.  All rights reserved.
_database_code_ICSD                187576
_audit_creation_date               2013/08/01
_chemical_name_systematic
;
Sodium Potassium Aluminosilicate Hydroxide (2/2/12/8)
;
_chemical_formula_structural       'Na2 K2 (Al12 Si12 O40 (O H)8)'
_chemical_formula_sum              'H8 Al12 K2 Na2 O48 Si12'
_chemical_name_mineral             Muscovite-paragonite
_publ_section_title
;
Computational study of the elastic behavior of the 2M1 muscovite-
paragonite series
;
loop_
_citation_id
_citation_journal_abbrev
_citation_year
_citation_journal_volume
_citation_journal_issue
_citation_page_first
_citation_page_last
_citation_journal_id_ASTM
primary 'American Mineralogist' 2013 98 4 651 664 AMMIAY
_publ_author_name
;
Hernandez-Haro, N.;Ortega-Castro, J.;Perez Del Valle, C.;Munoz-
Santiburcio, D.;Sainz-Diaz, C.I.;Hernandez-Laguna, A.
;
_cell_length_a                     5.15533
_cell_length_b                     8.95102
_cell_length_c                     19.66250
_cell_angle_alpha                  89.99898
_cell_angle_beta                   95.54694
_cell_angle_gamma                  89.99969
_cell_volume                       903.09
_cell_formula_units_Z              1
_symmetry_space_group_name_H-M     'P 1'
_symmetry_Int_Tables_number        1
loop_
_symmetry_equiv_pos_site_id
_symmetry_equiv_pos_as_xyz
  1	'x, y, z'
loop_
_atom_type_symbol
_atom_type_oxidation_number
Al3+	3
H1+	1
K1+	1
Na1+	1
O2-	-2
Si4+	4
loop_
_atom_site_label
_atom_site_type_symbol
_atom_site_symmetry_multiplicity
_atom_site_Wyckoff_symbol
_atom_site_fract_x
_atom_site_fract_y
_atom_site_fract_z
_atom_site_occupancy
_atom_site_attached_hydrogens
Na1 Na1+ 1 a 0.49997 0.41827 0.75015 1.0000 0 
Al1 Al3+ 1 a 0.23407 0.91427 0.50839 1.0000 0 
Si1 Si4+ 1 a 0.43611 0.07020 0.64648 1.0000 0 
Al2 Al3+ 1 a 0.44499 0.73904 0.64681 1.0000 0 
O1 O2- 1 a 0.44277 0.05970 0.56281 1.0000 0 
O2 O2- 1 a 0.37000 0.74916 0.55807 1.0000 0 
O3 O2- 1 a 0.43742 0.43352 0.55906 1.0000 0 
O4 O2- 1 a 0.36044 0.91436 0.68174 1.0000 0 
O5 O2- 1 a 0.23506 0.20411 0.66942 1.0000 0 
O6 O2- 1 a 0.73107 0.12324 0.67922 1.0000 0 
H1 H1+ 1 a 0.34226 0.34002 0.56186 1.0000 0 
Al3 Al3+ 1 a 0.76567 0.91440 -0.00824 1.0000 0 
Si2 Si4+ 1 a 0.56363 0.07033 -0.14634 1.0000 0 
Al4 Al3+ 1 a 0.55473 0.73918 -0.14665 1.0000 0 
O7 O2- 1 a 0.55696 0.05981 -0.06267 1.0000 0 
O8 O2- 1 a 0.62981 0.74926 -0.05792 1.0000 0 
O9 O2- 1 a 0.56234 0.43359 -0.05890 1.0000 0 
O10 O2- 1 a 0.63929 0.91449 -0.18160 1.0000 0 
O11 O2- 1 a 0.76472 0.20423 -0.16928 1.0000 0 
O12 O2- 1 a 0.26869 0.12340 -0.17907 1.0000 0 
H2 H1+ 1 a 0.65759 0.34009 -0.06163 1.0000 0 
K1 K1+ 1 a 0.49984 0.60409 0.25007 1.0000 0 
Al5 Al3+ 1 a 0.73846 0.08482 0.50649 1.0000 0 
Si3 Si4+ 1 a 0.53432 0.93009 0.36852 1.0000 0 
Al6 Al3+ 1 a 0.52921 0.26035 0.36774 1.0000 0 
O13 O2- 1 a 0.52930 0.93879 0.45210 1.0000 0 
O14 O2- 1 a 0.60371 0.24904 0.45664 1.0000 0 
O15 O2- 1 a 0.53513 0.56550 0.45537 1.0000 0 
O16 O2- 1 a 0.58964 0.08493 0.33079 1.0000 0 
O17 O2- 1 a 0.74380 0.80308 0.34449 1.0000 0 
O18 O2- 1 a 0.24724 0.86863 0.33456 1.0000 0 
H3 H1+ 1 a 0.63059 0.65916 0.45367 1.0000 0 
Al7 Al3+ 1 a 0.26129 0.08494 -0.00632 1.0000 0 
Si4 Si4+ 1 a 0.46546 0.93014 0.13161 1.0000 0 
Al8 Al3+ 1 a 0.47050 0.26040 0.13244 1.0000 0 
O19 O2- 1 a 0.47042 0.93888 0.04803 1.0000 0 
O20 O2- 1 a 0.39615 0.24914 0.04354 1.0000 0 
O21 O2- 1 a 0.46449 0.56567 0.04479 1.0000 0 
O22 O2- 1 a 0.41004 0.08496 0.16935 1.0000 0 
O23 O2- 1 a 0.25601 0.80309 0.15562 1.0000 0 
O24 O2- 1 a 0.75256 0.86872 0.16557 1.0000 0 
H4 H1+ 1 a 0.36902 0.65935 0.04642 1.0000 0 
Na2 Na1+ 1 a -0.00020 0.88528 0.75007 1.0000 0 
Al9 Al3+ 1 a 0.73177 0.41564 0.50684 1.0000 0 
Si5 Si4+ 1 a 0.96219 0.56985 0.64725 1.0000 0 
Si6 Si4+ 1 a 0.92743 0.24341 0.64547 1.0000 0 
O25 O2- 1 a 0.94681 0.55359 0.56301 1.0000 0 
O26 O2- 1 a 0.88318 0.24893 0.56241 1.0000 0 
O27 O2- 1 a 0.93927 0.94183 0.55966 1.0000 0 
O28 O2- 1 a 0.86083 0.40756 0.67870 1.0000 0 
O29 O2- 1 a 0.77931 0.70841 0.66912 1.0000 0 
O30 O2- 1 a 0.25685 0.59771 0.68187 1.0000 0 
H5 H1+ 1 a 0.85665 0.85225 0.57590 1.0000 0 
Al10 Al3+ 1 a 0.26796 0.41573 -0.00666 1.0000 0 
Si7 Si4+ 1 a 0.03753 0.56999 -0.14705 1.0000 0 
Si8 Si4+ 1 a 0.07233 0.24353 -0.14531 1.0000 0 
O31 O2- 1 a 0.05294 0.55369 -0.06282 1.0000 0 
O32 O2- 1 a 0.11655 0.24904 -0.06225 1.0000 0 
O33 O2- 1 a 0.06047 0.94199 -0.05950 1.0000 0 
O34 O2- 1 a 0.13892 0.40771 -0.17852 1.0000 0 
O35 O2- 1 a 0.22039 0.70855 -0.16893 1.0000 0 
O36 O2- 1 a 0.74287 0.59783 -0.18169 1.0000 0 
H6 H1+ 1 a 0.14307 0.85246 -0.07578 1.0000 0 
K2 K1+ 1 a -0.00011 0.09700 0.25006 1.0000 0 
Al11 Al3+ 1 a 0.24073 0.58268 0.50777 1.0000 0 
Si9 Si4+ 1 a 0.01074 0.42877 0.36765 1.0000 0 
Si10 Si4+ 1 a 0.04481 0.75517 0.36973 1.0000 0 
O37 O2- 1 a 0.02521 0.44557 0.45201 1.0000 0 
O38 O2- 1 a 0.08889 0.74990 0.45265 1.0000 0 
O39 O2- 1 a 0.03294 0.05690 0.45454 1.0000 0 
O40 O2- 1 a 0.09627 0.59211 0.33499 1.0000 0 
O41 O2- 1 a 0.20090 0.29645 0.34542 1.0000 0 
O42 O2- 1 a 0.72220 0.39484 0.33197 1.0000 0 
H7 H1+ 1 a 0.11631 0.14695 0.43897 1.0000 0 
Al12 Al3+ 1 a 0.75897 0.58277 -0.00760 1.0000 0 
Si11 Si4+ 1 a 0.98895 0.42883 0.13253 1.0000 0 
Si12 Si4+ 1 a 0.95496 0.75523 0.13040 1.0000 0 
O43 O2- 1 a 0.97444 0.44559 0.04817 1.0000 0 
O44 O2- 1 a 0.91082 0.74998 0.04749 1.0000 0 
O45 O2- 1 a 0.96674 0.05707 0.04563 1.0000 0 
O46 O2- 1 a 0.90346 0.59219 0.16517 1.0000 0 
O47 O2- 1 a 0.79875 0.29656 0.15479 1.0000 0 
O48 O2- 1 a 0.27748 0.39486 0.16821 1.0000 0 
H8 H1+ 1 a 0.88335 0.14714 0.06116 1.0000 0 

#End of data_187576-ICSD


