data_245989-ICSD
#?2014 by Fachinformationszentrum Karlsruhe, and the U.S. Secretary of 
#Commerce on behalf of the United States.  All rights reserved.
_database_code_ICSD                245989
_audit_creation_date               2009/02/01
_chemical_name_systematic          'Cesium Trilithium Tetraiodide'
_chemical_formula_structural       'Cs Li3 I4'
_chemical_formula_sum              'Cs1 I4 Li3'
_publ_section_title
;
Ab initio prediction of the low-temperature phase diagrams in the 
systems CsX-LiX (X = F, Cl, Br, I)
;
loop_
_citation_id
_citation_journal_abbrev
_citation_year
_citation_journal_volume
_citation_journal_issue
_citation_page_first
_citation_page_last
_citation_journal_id_ASTM
primary 'Solid State Sciences' 2008 10 6 804 813 SSSCFJ
_publ_author_name
;
Pentin, I.V.;Schoen, J.C.;Jansen, M.
;
_cell_length_a                     11.30
_cell_length_b                     4.94
_cell_length_c                     12.60
_cell_angle_alpha                  90.
_cell_angle_beta                   86.57
_cell_angle_gamma                  90.
_cell_volume                       702.1
_cell_formula_units_Z              2
_symmetry_space_group_name_H-M     'P 1 m 1'
_symmetry_Int_Tables_number        6
loop_
_symmetry_equiv_pos_site_id
_symmetry_equiv_pos_as_xyz
  1	'x, -y, z'
  2	'x, y, z'
loop_
_atom_type_symbol
_atom_type_oxidation_number
Cs1+	1
I1-	-1
Li1+	1
loop_
_atom_site_label
_atom_site_type_symbol
_atom_site_symmetry_multiplicity
_atom_site_Wyckoff_symbol
_atom_site_fract_x
_atom_site_fract_y
_atom_site_fract_z
_atom_site_occupancy
_atom_site_attached_hydrogens
Cs1 Cs1+ 1 b 0.11957 0.5 0.15907 1. 0 
Cs2 Cs1+ 1 b 0.55730 0.5 0.29812 1. 0 
Li1 Li1+ 1 b 0.07648 0.5 0.78160 1. 0 
Li2 Li1+ 1 b 0.44888 0.5 0.92827 1. 0 
Li3 Li1+ 1 a 0.36605 0 0.60942 1. 0 
Li4 Li1+ 1 a 0.01004 0 0.48414 1. 0 
Li5 Li1+ 1 b 0.70600 0.5 0.65805 1. 0 
Li6 Li1+ 1 a 0.79574 0 0.98332 1. 0 
I1 I1- 1 a 0.40552 0 0.05658 1. 0 
I2 I1- 1 b 0.32685 0.5 0.72986 1. 0 
I3 I1- 1 b 0.95302 0.5 0.58347 1. 0 
I4 I1- 1 b 0.69994 0.5 0.88971 1. 0 
I5 I1- 1 a 0.03584 0 0.89524 1. 0 
I6 I1- 1 a 0.24843 0 0.40667 1. 0 
I7 I1- 1 a 0.83321 0 0.21124 1. 0 
I8 I1- 1 a 0.61707 0 0.56348 1. 0 

#End of data_245989-ICSD


