data_245962-ICSD
#?2014 by Fachinformationszentrum Karlsruhe, and the U.S. Secretary of 
#Commerce on behalf of the United States.  All rights reserved.
_database_code_ICSD                245962
_audit_creation_date               2009/02/01
_chemical_name_systematic          'Tricesium Lithium Tetrafluoride'
_chemical_formula_structural       'Cs3 Li F4'
_chemical_formula_sum              'Cs3 F4 Li1'
_publ_section_title
;
Ab initio prediction of the low-temperature phase diagrams in the 
systems CsX-LiX (X = F, Cl, Br, I)
;
loop_
_citation_id
_citation_journal_abbrev
_citation_year
_citation_journal_volume
_citation_journal_issue
_citation_page_first
_citation_page_last
_citation_journal_id_ASTM
primary 'Solid State Sciences' 2008 10 6 804 813 SSSCFJ
_publ_author_name
;
Pentin, I.V.;Schoen, J.C.;Jansen, M.
;
_cell_length_a                     14.29
_cell_length_b                     6.12
_cell_length_c                     9.04
_cell_angle_alpha                  90
_cell_angle_beta                   105.05
_cell_angle_gamma                  90
_cell_volume                       763.47
_cell_formula_units_Z              4
_symmetry_space_group_name_H-M     'C 1 2/m 1'
_symmetry_Int_Tables_number        12
loop_
_symmetry_equiv_pos_site_id
_symmetry_equiv_pos_as_xyz
  1	'-x, y, -z'
  2	'-x, -y, -z'
  3	'x, -y, z'
  4	'x, y, z'
  5	'-x+.5, y+.5, -z'
  6	'-x+.5, -y+.5, -z'
  7	'x+.5, -y+.5, z'
  8	'x+.5, y+.5, z'
loop_
_atom_type_symbol
_atom_type_oxidation_number
Cs1+	1
F1-	-1
Li1+	1
loop_
_atom_site_label
_atom_site_type_symbol
_atom_site_symmetry_multiplicity
_atom_site_Wyckoff_symbol
_atom_site_fract_x
_atom_site_fract_y
_atom_site_fract_z
_atom_site_occupancy
_atom_site_attached_hydrogens
Cs1 Cs1+ 4 i 0.56380 0 0.23608 1. 0 
Cs2 Cs1+ 4 i 0.86573 0 0.09572 1. 0 
Cs3 Cs1+ 4 i 0.30816 0 0.34670 1. 0 
Li1 Li1+ 4 i 0.91279 0 0.54995 1. 0 
F1 F1- 4 i 0.78282 0 0.38188 1. 0 
F2 F1- 4 h 0 0.75201 0.5 1. 0 
F3 F1- 4 i 0.64529 0 0.95799 1. 0 
F4 F1- 4 i 0.08672 0 0.22032 1. 0 

#End of data_245962-ICSD


