data_153807-ICSD
#?2014 by Fachinformationszentrum Karlsruhe, and the U.S. Secretary of 
#Commerce on behalf of the United States.  All rights reserved.
_database_code_ICSD                153807
_audit_creation_date               2007/04/01
_chemical_name_systematic
;
Dilithium Sulfate(VI) - Epsilon (hp)
;
_chemical_formula_structural       'Li2 (S O4)'
_chemical_formula_sum              'Li2 O4 S1'
_publ_section_title
;
High-pressure forms of lithium sulphate: structural determination and 
computer simulation
;
loop_
_citation_id
_citation_journal_abbrev
_citation_year
_citation_journal_volume
_citation_page_first
_citation_page_last
_citation_journal_id_ASTM
primary 'Physical Review, Serie 3. B - Condensed Matter (18,1978-)'
 2005 72 054121-1 054121-7 PRBMDO
_publ_author_name
;
Parfitt, D.C.;Keen, D.A.;Hull, S.;Crichton, W.A.;Mezouar, M.;Wilson, 
M.;Madden, P.A.
;
_cell_length_a                     5.24(4)
_cell_length_b                     8.09(8)
_cell_length_c                     5.89(4)
_cell_angle_alpha                  90.
_cell_angle_beta                   90.
_cell_angle_gamma                  90.
_cell_volume                       249.69
_cell_formula_units_Z              4
_symmetry_space_group_name_H-M     'C m c m'
_symmetry_Int_Tables_number        63
loop_
_symmetry_equiv_pos_site_id
_symmetry_equiv_pos_as_xyz
  1	'-x, y, -z+.5'
  2	'-x, -y, z+.5'
  3	'-x, y, z'
  4	'-x, -y, -z'
  5	'x, -y, z+.5'
  6	'x, y, -z+.5'
  7	'x, -y, -z'
  8	'x, y, z'
  9	'-x+.5, y+.5, -z+.5'
 10	'-x+.5, -y+.5, z+.5'
 11	'-x+.5, y+.5, z'
 12	'-x+.5, -y+.5, -z'
 13	'x+.5, -y+.5, z+.5'
 14	'x+.5, y+.5, -z+.5'
 15	'x+.5, -y+.5, -z'
 16	'x+.5, y+.5, z'
loop_
_atom_type_symbol
_atom_type_oxidation_number
Li1+	1
O2-	-2
S6+	6
loop_
_atom_site_label
_atom_site_type_symbol
_atom_site_symmetry_multiplicity
_atom_site_Wyckoff_symbol
_atom_site_fract_x
_atom_site_fract_y
_atom_site_fract_z
_atom_site_occupancy
_atom_site_attached_hydrogens
Li1 Li1+ 4 b 0 0.5 0 1. 0 
Li2 Li1+ 4 c 0 0.1961(6) 0.250 1. 0 
S1 S6+ 4 c 0 0.8550(1) 0.250 1. 0 
O1 O2- 8 f 0 0.2450(1) 0.541(1) 1. 0 
O2 O2- 8 g 0.272(14) 0.4650(1) 0.250 1. 0 

#End of data_153807-ICSD


