data_164171-ICSD
#?2014 by Fachinformationszentrum Karlsruhe, and the U.S. Secretary of 
#Commerce on behalf of the United States.  All rights reserved.
_database_code_ICSD                164171
_audit_creation_date               2010/02/01
_chemical_name_systematic          'Iron Magnesium Silicate'
_chemical_formula_structural       'Fe Mg (Si O4)'
_chemical_formula_sum              'Fe1 Mg1 O4 Si1'
_chemical_name_mineral             Olivine
_publ_section_title
;
Site preference of Fe atoms in Fe Mg Si O4 and Fe Mg (Si O3)2 studied 
by density functional calculation
;
loop_
_citation_id
_citation_journal_abbrev
_citation_year
_citation_journal_volume
_citation_page_first
_citation_page_last
_citation_journal_id_ASTM
primary 'Physical Review, Serie 3. B - Condensed Matter (18,1978-)'
 2009 79 115103-1 115103-8 PRBMDO
2 'Physics and Chemistry of Minerals' 2000 27 630 637 PCMIDU
_publ_author_name
;
Chatterjee, S.;Sengupta, S.;Saha Dasgupta, T.;Chatterjee, K.;Mandal, 
N.
;
_cell_length_a                     4.8065
_cell_length_b                     10.3759
_cell_length_c                     6.0609
_cell_angle_alpha                  90.
_cell_angle_beta                   90.
_cell_angle_gamma                  90.
_cell_volume                       302.27
_cell_formula_units_Z              4
_symmetry_space_group_name_H-M     'P b n m'
_symmetry_Int_Tables_number        62
loop_
_symmetry_equiv_pos_site_id
_symmetry_equiv_pos_as_xyz
  1	'-x+.5, y+.5, z'
  2	'x, y, -z+.5'
  3	'x+.5, -y+.5, z+.5'
  4	'-x, -y, -z'
  5	'x+.5, -y+.5, -z'
  6	'-x, -y, z+.5'
  7	'-x+.5, y+.5, -z+.5'
  8	'x, y, z'
loop_
_atom_type_symbol
_atom_type_oxidation_number
Fe2+	2
Mg2+	2
O2-	-2
Si4+	4
loop_
_atom_site_label
_atom_site_type_symbol
_atom_site_symmetry_multiplicity
_atom_site_Wyckoff_symbol
_atom_site_fract_x
_atom_site_fract_y
_atom_site_fract_z
_atom_site_occupancy
_atom_site_attached_hydrogens
Fe1 Fe2+ 4 a 0 0 0 1. 0 
Mg1 Mg2+ 4 c 0.992 0.278 0.25 1. 0 
Si1 Si4+ 4 c 0.428 0.096 0.25 1. 0 
O1 O2- 4 c 0.75 0.095 0.25 1. 0 
O2 O2- 4 c 0.208 0.448 0.25 1. 0 
O3 O2- 8 d 0.284 0.165 0.035 1. 0 

#End of data_164171-ICSD


