data_246482-ICSD
#?2014 by Fachinformationszentrum Karlsruhe, and the U.S. Secretary of 
#Commerce on behalf of the United States.  All rights reserved.
_database_code_ICSD                246482
_audit_creation_date               2009/08/01
_chemical_name_systematic          'Calcium Alanate'
_chemical_formula_structural       'Ca (Al H4)2'
_chemical_formula_sum              'H8 Al2 Ca1'
_publ_section_title
;
Crystal structure of Ca (Al H4)2 predicted from density-functional 
band-structure calculations
;
loop_
_citation_id
_citation_journal_abbrev
_citation_year
_citation_journal_volume
_citation_page_first
_citation_page_last
_citation_journal_id_ASTM
primary 'Physical Review, Serie 3. B - Condensed Matter (18,1978-)'
 2005 71 144111-1 144111-5 PRBMDO
_publ_author_name                  'Lovvik, O.M.'
_cell_length_a                     13.37
_cell_length_b                     9.28
_cell_length_c                     8.91
_cell_angle_alpha                  90.
_cell_angle_beta                   90.
_cell_angle_gamma                  90.
_cell_volume                       1105.5
_cell_formula_units_Z              8
_symmetry_space_group_name_H-M     'P b c a'
_symmetry_Int_Tables_number        61
loop_
_symmetry_equiv_pos_site_id
_symmetry_equiv_pos_as_xyz
  1	'x+.5, y, -z+.5'
  2	'x, -y+.5, z+.5'
  3	'-x+.5, y+.5, z'
  4	'-x, -y, -z'
  5	'-x+.5, -y, z+.5'
  6	'-x, y+.5, -z+.5'
  7	'x+.5, -y+.5, -z'
  8	'x, y, z'
loop_
_atom_type_symbol
_atom_type_oxidation_number
Al3+	3
Ca2+	2
H1-	-1
loop_
_atom_site_label
_atom_site_type_symbol
_atom_site_symmetry_multiplicity
_atom_site_Wyckoff_symbol
_atom_site_fract_x
_atom_site_fract_y
_atom_site_fract_z
_atom_site_occupancy
_atom_site_attached_hydrogens
Ca1 Ca2+ 8 c 0.11 -0.47 0.22 1. 0 
Al1 Al3+ 8 c -0.06 -0.22 -0.01 1. 0 
Al2 Al3+ 8 c 0.16 -0.11 0.32 1. 0 
H1 H1- 8 c -0.01 -0.34 0.11 1. 0 
H2 H1- 8 c 0.13 0.39 0.41 1. 0 
H3 H1- 8 c 0.13 0.31 0.12 1. 0 
H4 H1- 8 c 0.02 -0.37 0.41 1. 0 
H5 H1- 8 c 0.17 -0.08 0.50 1. 0 
H6 H1- 8 c 0.04 -0.09 0.27 1. 0 
H7 H1- 8 c 0.19 -0.27 0.27 1. 0 
H8 H1- 8 c 0.22 0.01 0.23 1. 0 

#End of data_246482-ICSD


