data_167509-ICSD
#?2014 by Fachinformationszentrum Karlsruhe, and the U.S. Secretary of 
#Commerce on behalf of the United States.  All rights reserved.
_database_code_ICSD                167509
_audit_creation_date               2011/02/01
_chemical_name_systematic          'Yttrium Aluminate'
_chemical_formula_structural       'Y (Al O3)'
_chemical_formula_sum              'Al1 O3 Y1'
_publ_section_title
;
Theoretical study on the electronic structures and optical properties 
of Y Al O3 crystal with interstitial oxygen atom
;
loop_
_citation_id
_citation_journal_abbrev
_citation_year
_citation_journal_volume
_citation_page_first
_citation_page_last
_citation_journal_id_ASTM
primary 'Solid State Communications' 2010 150 897 900 SSCOA4
_publ_author_name
;
Chen Jian Yu;Zhao Guang Jun;Sun Yuan Yuan;Liu Ting Yu
;
_cell_length_a                     5.303
_cell_length_b                     7.348
_cell_length_c                     5.169
_cell_angle_alpha                  90.
_cell_angle_beta                   90.
_cell_angle_gamma                  90.
_cell_volume                       201.42
_cell_formula_units_Z              4
_symmetry_space_group_name_H-M     'P n m a'
_symmetry_Int_Tables_number        62
loop_
_symmetry_equiv_pos_site_id
_symmetry_equiv_pos_as_xyz
  1	'x+.5, y, -z+.5'
  2	'x, -y+.5, z'
  3	'-x+.5, y+.5, z+.5'
  4	'-x, -y, -z'
  5	'-x+.5, -y, z+.5'
  6	'-x, y+.5, -z'
  7	'x+.5, -y+.5, -z+.5'
  8	'x, y, z'
loop_
_atom_type_symbol
_atom_type_oxidation_number
Al3+	3
O2-	-2
Y3+	3
loop_
_atom_site_label
_atom_site_type_symbol
_atom_site_symmetry_multiplicity
_atom_site_Wyckoff_symbol
_atom_site_fract_x
_atom_site_fract_y
_atom_site_fract_z
_atom_site_occupancy
_atom_site_attached_hydrogens
Y1 Y3+ 4 c 0.0522 0.25 0.4899 1. 0 
Al1 Al3+ 4 a 0 0 0 1. 0 
O1 O2- 4 c 0.4803 0.25 0.5794 1. 0 
O2 O2- 8 d 0.2921 0.0416 0.209 1. 0 

#End of data_167509-ICSD


