data_157694-ICSD
#?2014 by Fachinformationszentrum Karlsruhe, and the U.S. Secretary of 
#Commerce on behalf of the United States.  All rights reserved.
_database_code_ICSD                157694
_audit_creation_date               2008/02/01
_chemical_name_systematic
;
Magnesium Diferrate(III) - Ordered, Lt
;
_chemical_formula_structural       'Mg (Fe2 O4)'
_chemical_formula_sum              'Fe2 Mg1 O4'
_chemical_name_mineral             Magnesioferrite
_publ_section_title
;
A Monte Carlo investigation of the thermodynamics of cation ordering 
in 2-3 spinels
;
loop_
_citation_id
_citation_journal_abbrev
_citation_year
_citation_journal_volume
_citation_page_first
_citation_page_last
_citation_journal_id_ASTM
primary 'American Mineralogist' 2007 92 1334 1345 AMMIAY
_publ_author_name                  'Palin, E.J.;Harrison, R.J.'
_cell_length_a                     5.8309
_cell_length_b                     5.8309
_cell_length_c                     8.2218
_cell_angle_alpha                  90.
_cell_angle_beta                   90.
_cell_angle_gamma                  90.
_cell_volume                       279.54
_cell_formula_units_Z              4
_symmetry_space_group_name_H-M     'P 41 2 2'
_symmetry_Int_Tables_number        91
loop_
_symmetry_equiv_pos_site_id
_symmetry_equiv_pos_as_xyz
  1	'y, x, -z+.75'
  2	'-y, -x, -z+.25'
  3	'x, -y, -z+.5'
  4	'-x, y, -z'
  5	'y, -x, z+.75'
  6	'-y, x, z+.25'
  7	'-x, -y, z+.5'
  8	'x, y, z'
loop_
_atom_type_symbol
_atom_type_oxidation_number
Fe3+	3
Mg2+	2
O2-	-2
loop_
_atom_site_label
_atom_site_type_symbol
_atom_site_symmetry_multiplicity
_atom_site_Wyckoff_symbol
_atom_site_fract_x
_atom_site_fract_y
_atom_site_fract_z
_atom_site_occupancy
_atom_site_attached_hydrogens
Fe1 Fe3+ 4 a 0.7425 0 0.250 1. 0 
Fe2 Fe3+ 4 c 0.25317 0.25317 0.375 1. 0 
Mg1 Mg2+ 4 b 0.25756 0.5 0.750 1. 0 
O1 O2- 8 d 0.25971 0.96702 0.50693 1. 0 
O2 O2- 8 d 0.73983 0.47624 0.02034 1. 0 

#End of data_157694-ICSD


