data_162793-ICSD
#?2014 by Fachinformationszentrum Karlsruhe, and the U.S. Secretary of 
#Commerce on behalf of the United States.  All rights reserved.
_database_code_ICSD                162793
_audit_creation_date               2009/08/01
_chemical_name_systematic
;
Tricalcium Nitride - Gamma, Hypothetical
;
_chemical_formula_structural       'Ca3 N2'
_chemical_formula_sum              'Ca3 N2'
_publ_section_title
;
Density functional study of calcium nitride: refined geometries and 
prediction of high-pressure phases
;
loop_
_citation_id
_citation_journal_abbrev
_citation_year
_citation_journal_volume
_citation_journal_issue
_citation_page_first
_citation_page_last
_citation_journal_id_ASTM
primary 'Journal of Physical Chemistry C' 2009 113 7 2943 2949 JPCCCK
_publ_author_name                  'Roemer, S.R.;Schnick, W.;Kroll, P.'
_cell_length_a                     6.2030
_cell_length_b                     6.3520
_cell_length_c                     8.9597
_cell_angle_alpha                  90.
_cell_angle_beta                   90.
_cell_angle_gamma                  90.
_cell_volume                       353.03
_cell_formula_units_Z              4
_symmetry_space_group_name_H-M     'P b n a'
_symmetry_Int_Tables_number        60
loop_
_symmetry_equiv_pos_site_id
_symmetry_equiv_pos_as_xyz
  1	'-x, y+.5, z'
  2	'x+.5, y, -z+.5'
  3	'x+.5, -y+.5, z+.5'
  4	'-x, -y, -z'
  5	'x, -y+.5, -z'
  6	'-x+.5, -y, z+.5'
  7	'-x+.5, y+.5, -z+.5'
  8	'x, y, z'
loop_
_atom_type_symbol
_atom_type_oxidation_number
Ca2+	2
N3-	-3
loop_
_atom_site_label
_atom_site_type_symbol
_atom_site_symmetry_multiplicity
_atom_site_Wyckoff_symbol
_atom_site_fract_x
_atom_site_fract_y
_atom_site_fract_z
_atom_site_occupancy
_atom_site_attached_hydrogens
Ca1 Ca2+ 8 d 0.60627 0.10513 0.84712 1. 0 
Ca2 Ca2+ 4 c 0.04498 0.250 0 1. 0 
N1 N3- 8 d 0.75278 0.03142 0.11210 1. 0 

#End of data_162793-ICSD


