data_165648-ICSD
#?2014 by Fachinformationszentrum Karlsruhe, and the U.S. Secretary of 
#Commerce on behalf of the United States.  All rights reserved.
_database_code_ICSD                165648
_audit_creation_date               2010/02/01
_chemical_name_systematic
;
Tetramagnesium Heptakis(tetrahydridoborate) Boride
;
_chemical_formula_structural       'Mg4 (B H4)7 B'
_chemical_formula_sum              'H28 B8 Mg4'
_publ_section_title
;
A new phase in the decomposition of Mg (B H4)2: first-principles 
simulated annealing
;
loop_
_citation_id
_citation_journal_abbrev
_citation_year
_citation_journal_volume
_citation_page_first
_citation_page_last
_citation_journal_id_ASTM
primary 'Journal of Materials Chemistry' 2009 19 7081 7087 JMACEP
_publ_author_name
;
van Setten, M.J.;Lohstroh, W.;Fichtner, M.
;
_cell_length_a                     8.20189
_cell_length_b                     8.25685
_cell_length_c                     9.99803
_cell_angle_alpha                  90(1)
_cell_angle_beta                   89.583
_cell_angle_gamma                  90(1)
_cell_volume                       677.07
_cell_formula_units_Z              1
_symmetry_space_group_name_H-M     'P 1'
_symmetry_Int_Tables_number        1
loop_
_symmetry_equiv_pos_site_id
_symmetry_equiv_pos_as_xyz
  1	'x, y, z'
loop_
_atom_type_symbol
_atom_type_oxidation_number
B2.5+	2.5
H1-	-1
Mg2+	2
loop_
_atom_site_label
_atom_site_type_symbol
_atom_site_symmetry_multiplicity
_atom_site_Wyckoff_symbol
_atom_site_fract_x
_atom_site_fract_y
_atom_site_fract_z
_atom_site_occupancy
_atom_site_attached_hydrogens
Mg1 Mg2+ 1 a 0.1729977168 0.4388896245 0.2656977759 1. 0 
Mg2 Mg2+ 1 a 0.5831070365 0.8494981615 0.8410363278 1. 0 
Mg3 Mg2+ 1 a 0.6857504141 0.3934727695 0.0193129974 1. 0 
Mg4 Mg2+ 1 a 0.9756229363 0.7462430743 0.7874386716 1. 0 
B1 B2.5+ 1 a 0.7758037549 0.6793241847 0.9625367011 1. 0 
B2 B2.5+ 1 a 0.6175736952 0.1183026401 0.9440521955 1. 0 
B3 B2.5+ 1 a 0.4215057781 0.4404112207 0.1413770288 1. 0 
B4 B2.5+ 1 a 0.7337337952 0.5841278519 0.8287940469 1. 0 
B5 B2.5+ 1 a 0.9504071110 0.3553865086 0.1334690438 1. 0 
B6 B2.5+ 1 a 0.1355560219 0.5184492164 0.4683940316 1. 0 
B7 B2.5+ 1 a 0.8272864109 0.9339243831 0.6555047975 1. 0 
B8 B2.5+ 1 a 0.2740493982 0.7886670621 0.8246696456 1. 0 
H1 H1- 1 a 0.4869956688 0.0722786223 0.8973189947 1. 0 
H2 H1- 1 a 0.3567773676 0.3159150374 0.1855712906 1. 0 
H3 H1- 1 a 0.5984445541 0.5555191074 0.7856625984 1. 0 
H4 H1- 1 a 0.9334046652 0.2923094055 0.0243996081 1. 0 
H5 H1- 1 a 0.0392074643 0.5837389303 0.3898387415 1. 0 
H6 H1- 1 a 0.8821743128 0.9692742839 0.7666353905 1. 0 
H7 H1- 1 a 0.3471096041 0.7743272987 0.9307732040 1. 0 
H8 H1- 1 a 0.5903785990 0.1598049551 0.0594934229 1. 0 
H9 H1- 1 a 0.9151356062 0.7184816705 0.9945040211 1. 0 
H10 H1- 1 a 0.3483084883 0.5668092151 0.1674721291 1. 0 
H11 H1- 1 a 0.1042736500 0.5564021302 0.5819404886 1. 0 
H12 H1- 1 a 0.8237752646 0.3938243017 0.1911557781 1. 0 
H13 H1- 1 a 0.3622955434 0.8213290626 0.7280388586 1. 0 
H14 H1- 1 a 0.6778670888 0.9080074041 0.6644917221 1. 0 
H15 H1- 1 a 0.7235119199 0.0150020914 0.9490227452 1. 0 
H16 H1- 1 a 0.4250151676 0.4273401927 0.0197436830 1. 0 
H17 H1- 1 a 0.8382965852 0.5374596425 0.7485800381 1. 0 
H18 H1- 1 a 0.6679071439 0.2260064817 0.8693829179 1. 0 
H19 H1- 1 a 0.6781564810 0.7349175773 0.0426299442 1. 0 
H20 H1- 1 a 0.5541746590 0.4505211479 0.1956055939 1. 0 
H21 H1- 1 a 0.0187762377 0.2566035267 0.2061346633 1. 0 
H22 H1- 1 a 0.1217881163 0.3691325108 0.4558482991 1. 0 
H23 H1- 1 a 0.8891863558 0.8089671620 0.6089501651 1. 0 
H24 H1- 1 a 0.1754195897 0.8999093767 0.8377953682 1. 0 
H25 H1- 1 a 0.0279276650 0.4813450656 0.1137900210 1. 0 
H26 H1- 1 a 0.2754998645 0.5571037381 0.4357075340 1. 0 
H27 H1- 1 a 0.2109758061 0.6555155610 0.8004630164 1. 0 
H28 H1- 1 a 0.8517830400 0.0454578014 0.5807744568 1. 0 

#End of data_165648-ICSD


