data_165708-ICSD
#?2014 by Fachinformationszentrum Karlsruhe, and the U.S. Secretary of 
#Commerce on behalf of the United States.  All rights reserved.
_database_code_ICSD                165708
_audit_creation_date               2010/02/01
_chemical_name_systematic          'Sodium Tetrahydridoborate - Beta'
_chemical_formula_structural       'Na (B H4)'
_chemical_formula_sum              'H4 B1 Na1'
_publ_section_title
;
Structural transition of Na B H4 under high pressure: ab initio 
calculations
;
loop_
_citation_id
_citation_journal_abbrev
_citation_year
_citation_journal_volume
_citation_page_first
_citation_page_last
_citation_journal_id_ASTM
primary 'Chemical Physics (Netherland)' 2009 362 135 139 CMPHC2
2 'Applied Physics Letters' 2005 87 261916-1 261916-3 APPLAB
_publ_author_name
;
Yu Fei;Sun Jiu Xun;Tian Rong Gang;Ji Guang Fu;Zhu Wenjun
;
_cell_length_a                     4.052
_cell_length_b                     4.052
_cell_length_c                     5.536
_cell_angle_alpha                  90.
_cell_angle_beta                   90.
_cell_angle_gamma                  90.
_cell_volume                       90.89
_cell_formula_units_Z              2
_symmetry_space_group_name_H-M     'P -4 21 c'
_symmetry_Int_Tables_number        114
loop_
_symmetry_equiv_pos_site_id
_symmetry_equiv_pos_as_xyz
  1	'y+.5, x+.5, z+.5'
  2	'y, -x, -z'
  3	'-y+.5, -x+.5, z+.5'
  4	'-y, x, -z'
  5	'x+.5, -y+.5, -z+.5'
  6	'-x, -y, z'
  7	'-x+.5, y+.5, -z+.5'
  8	'x, y, z'
loop_
_atom_type_symbol
_atom_type_oxidation_number
B3+	3
H1-	-1
Na1+	1
loop_
_atom_site_label
_atom_site_type_symbol
_atom_site_symmetry_multiplicity
_atom_site_Wyckoff_symbol
_atom_site_fract_x
_atom_site_fract_y
_atom_site_fract_z
_atom_site_occupancy
_atom_site_attached_hydrogens
Na1 Na1+ 2 a 0 0 0 1. 0 
B1 B3+ 2 b 0 0 0.5 1. 0 
H1 H1- 8 e 0.052 0.755 0.375 1. 0 

#End of data_165708-ICSD


