data_261751-ICSD
#?2014 by Fachinformationszentrum Karlsruhe, and the U.S. Secretary of 
#Commerce on behalf of the United States.  All rights reserved.
_database_code_ICSD                261751
_audit_creation_date               2012/02/01
_chemical_name_systematic          'Sodium Tetrahydridoborate'
_chemical_formula_structural       'Na (B H4)'
_chemical_formula_sum              'H4 B1 Na1'
_publ_section_title
;
Ab-initio crystal structure prediction. A case study: Na B H4
;
loop_
_citation_id
_citation_journal_abbrev
_citation_year
_citation_journal_volume
_citation_journal_issue
_citation_page_first
_citation_page_last
_citation_journal_id_ASTM
primary 'Journal of Solid State Chemistry' 2011 184 7 1622 1630 JSSCBI
_publ_author_name                  'Caputo, R.;Tekin, A.'
_cell_length_a                     4.674
_cell_length_b                     4.409
_cell_length_c                     8.184
_cell_angle_alpha                  90.
_cell_angle_beta                   113.340
_cell_angle_gamma                  90.
_cell_volume                       154.85
_cell_formula_units_Z              2
_symmetry_space_group_name_H-M     'P 1 m 1'
_symmetry_Int_Tables_number        6
loop_
_symmetry_equiv_pos_site_id
_symmetry_equiv_pos_as_xyz
  1	'x, -y, z'
  2	'x, y, z'
loop_
_atom_type_symbol
_atom_type_oxidation_number
B3+	3
H1-	-1
Na1+	1
loop_
_atom_site_label
_atom_site_type_symbol
_atom_site_symmetry_multiplicity
_atom_site_Wyckoff_symbol
_atom_site_fract_x
_atom_site_fract_y
_atom_site_fract_z
_atom_site_occupancy
_atom_site_attached_hydrogens
H1 H1- 2 c 0.61718 0.71834 0.84080 1. 0 
H2 H1- 2 c 0.11964 0.22811 0.36166 1. 0 
Na1 Na1+ 1 a 0.92372 0 0.07751 1. 0 
Na2 Na1+ 1 a 0.61911 0 0.58744 1. 0 
B1 B3+ 1 a 0.01440 0 0.40149 1. 0 
H3 H1- 1 a 0.08935 0 0.56150 1. 0 
H4 H1- 1 a 0.73116 0 0.32171 1. 0 
B2 B3+ 1 b 0.78103 0.5 0.84849 1. 0 
H5 H1- 1 b 0.01456 0.5 0.98733 1. 0 
H6 H1- 1 b 0.86502 0.5 0.72562 1. 0 

#End of data_261751-ICSD


