data_162262-ICSD
#?2014 by Fachinformationszentrum Karlsruhe, and the U.S. Secretary of 
#Commerce on behalf of the United States.  All rights reserved.
_database_code_ICSD                162262
_audit_creation_date               2009/08/01
_audit_update_record               2013/08/01
_chemical_name_systematic          'Tetracesium Trimagnesium Hydride'
_chemical_formula_structural       'Cs4 Mg3 H10'
_chemical_formula_sum              'H10 Cs4 Mg3'
_publ_section_title
;
Theoretical study of the Cs Mg H3, Cs2 Mg H4 and Cs4 Mg3H10 complex 
hydrides from first-principles
;
loop_
_citation_id
_citation_journal_abbrev
_citation_year
_citation_journal_volume
_citation_journal_issue
_citation_page_first
_citation_page_last
_citation_journal_id_ASTM
primary 'Physica Status Solidi A - Applications and Materials'
 2008 245 12 2749 2755 PSSABA
2 'Journal of Alloys and Compounds' 2002 330- 152 156 JALCEU
_publ_author_name
;
Wang Zhizhong;Wang Yufei;Tang Biyu;Zeng Xiaoqin;Ding Wenjiang
;
_cell_length_a                     6.3400
_cell_length_b                     14.772
_cell_length_c                     13.821
_cell_angle_alpha                  90.
_cell_angle_beta                   90.
_cell_angle_gamma                  90.
_cell_volume                       1294.4
_cell_formula_units_Z              4
_symmetry_space_group_name_H-M     'C m c a'
_symmetry_Int_Tables_number        64
loop_
_symmetry_equiv_pos_site_id
_symmetry_equiv_pos_as_xyz
  1	'-x, -y+.5, z+.5'
  2	'-x, y+.5, -z+.5'
  3	'-x, y, z'
  4	'-x, -y, -z'
  5	'x, y+.5, -z+.5'
  6	'x, -y+.5, z+.5'
  7	'x, -y, -z'
  8	'x, y, z'
  9	'-x+.5, -y, z+.5'
 10	'-x+.5, y, -z+.5'
 11	'-x+.5, y+.5, z'
 12	'-x+.5, -y+.5, -z'
 13	'x+.5, y, -z+.5'
 14	'x+.5, -y, z+.5'
 15	'x+.5, -y+.5, -z'
 16	'x+.5, y+.5, z'
loop_
_atom_type_symbol
_atom_type_oxidation_number
Cs1+	1
H1-	-1
Mg2+	2
loop_
_atom_site_label
_atom_site_type_symbol
_atom_site_symmetry_multiplicity
_atom_site_Wyckoff_symbol
_atom_site_fract_x
_atom_site_fract_y
_atom_site_fract_z
_atom_site_occupancy
_atom_site_attached_hydrogens
Cs1 Cs1+ 8 f 0 0.255 0.393 1. 0 
Cs2 Cs1+ 8 f 0 0.455 0.139 1. 0 
Mg1 Mg2+ 8 f 0 0.118 0.156 1. 0 
Mg2 Mg2+ 4 a 0 0 0 1. 0 
H1 H1- 16 g 0.138 0.096 0.039 1. 0 
H2 H1- 8 f 0 0.247 0.147 1. 0 
H3 H1- 8 f 0 0.476 0.358 1. 0 
H4 H1- 8 e 0.250 0.109 0.250 1. 0 

#End of data_162262-ICSD


