data_165987-ICSD
#?2014 by Fachinformationszentrum Karlsruhe, and the U.S. Secretary of 
#Commerce on behalf of the United States.  All rights reserved.
_database_code_ICSD                165987
_audit_creation_date               2010/08/01
_chemical_name_systematic          'Magnesium Pentahydridoaluminate'
_chemical_formula_structural       'Mg (Al H5)'
_chemical_formula_sum              'H5 Al1 Mg1'
_publ_section_title
;
First-principles determination of crystal structures, phase stability 
and reaction thermodynamics in the Li-Mg-Al-H hydrogen storage system
;
loop_
_citation_id
_citation_journal_abbrev
_citation_year
_citation_journal_volume
_citation_page_first
_citation_page_last
_citation_journal_id_ASTM
primary 'Physical Review, Serie 3. B - Condensed Matter (18,1978-)'
 2009 79 184102-1 184102-9 PRBMDO
_publ_author_name
;
Akbarzadeh, A.R.;Wolverton, C.;Ozolins, V.
;
_cell_length_a                     4.550
_cell_length_b                     4.260
_cell_length_c                     13.024
_cell_angle_alpha                  90.
_cell_angle_beta                   90.
_cell_angle_gamma                  90.
_cell_volume                       252.44
_cell_formula_units_Z              4
_symmetry_space_group_name_H-M     'P 21 21 21'
_symmetry_Int_Tables_number        19
loop_
_symmetry_equiv_pos_site_id
_symmetry_equiv_pos_as_xyz
  1	'-x, y+.5, -z+.5'
  2	'x+.5, -y+.5, -z'
  3	'-x+.5, -y, z+.5'
  4	'x, y, z'
loop_
_atom_type_symbol
_atom_type_oxidation_number
Al3+	3
H1-	-1
Mg2+	2
loop_
_atom_site_label
_atom_site_type_symbol
_atom_site_symmetry_multiplicity
_atom_site_Wyckoff_symbol
_atom_site_fract_x
_atom_site_fract_y
_atom_site_fract_z
_atom_site_occupancy
_atom_site_attached_hydrogens
Mg1 Mg2+ 4 a -0.2504 -0.2466 -0.3204 1. 0 
Al1 Al3+ 4 a 0.2486 0.2528 -0.4083 1. 0 
H1 H1- 4 a -0.4756 -0.0559 0.4069 1. 0 
H2 H1- 4 a -0.0300 0.0912 0.3051 1. 0 
H3 H1- 4 a 0.4719 -0.0516 -0.4063 1. 0 
H4 H1- 4 a 0.0284 0.0975 -0.3045 1. 0 
H5 H1- 4 a -0.0024 0.0916 -0.4994 1. 0 

#End of data_165987-ICSD


