data_162773-ICSD
#?2014 by Fachinformationszentrum Karlsruhe, and the U.S. Secretary of 
#Commerce on behalf of the United States.  All rights reserved.
_database_code_ICSD                162773
_audit_creation_date               2009/08/01
_chemical_name_systematic          'Lithium Beryllium Hydride'
_chemical_formula_structural       'Li Be H3'
_chemical_formula_sum              'H3 Be1 Li1'
_publ_section_title
;
Crystal structure prediction of Li Be H3 using ab initio total-energy 
calculations and evolutionary simulations
;
loop_
_citation_id
_citation_journal_abbrev
_citation_year
_citation_journal_volume
_citation_page_first
_citation_page_last
_citation_journal_id_ASTM
primary 'Journal of Chemical Physics' 2008 129 234105-1 234105-12 JCPSA6
_publ_author_name
;
Hu Chaohao;Oganov, A.R.;Wang, Y.W.;Zhou, H.-Y.;Lyakhov, A.;Hafner, J.
;
_cell_length_a                     10.1207
_cell_length_b                     5.8077
_cell_length_c                     8.2605
_cell_angle_alpha                  90.
_cell_angle_beta                   90.
_cell_angle_gamma                  90.
_cell_volume                       485.54
_cell_formula_units_Z              12
_symmetry_space_group_name_H-M     'C m c m'
_symmetry_Int_Tables_number        63
loop_
_symmetry_equiv_pos_site_id
_symmetry_equiv_pos_as_xyz
  1	'-x, y, -z+.5'
  2	'-x, -y, z+.5'
  3	'-x, y, z'
  4	'-x, -y, -z'
  5	'x, -y, z+.5'
  6	'x, y, -z+.5'
  7	'x, -y, -z'
  8	'x, y, z'
  9	'-x+.5, y+.5, -z+.5'
 10	'-x+.5, -y+.5, z+.5'
 11	'-x+.5, y+.5, z'
 12	'-x+.5, -y+.5, -z'
 13	'x+.5, -y+.5, z+.5'
 14	'x+.5, y+.5, -z+.5'
 15	'x+.5, -y+.5, -z'
 16	'x+.5, y+.5, z'
loop_
_atom_type_symbol
_atom_type_oxidation_number
Be2+	2
H1-	-1
Li1+	1
loop_
_atom_site_label
_atom_site_type_symbol
_atom_site_symmetry_multiplicity
_atom_site_Wyckoff_symbol
_atom_site_fract_x
_atom_site_fract_y
_atom_site_fract_z
_atom_site_occupancy
_atom_site_attached_hydrogens
Li1 Li1+ 8 e 0.17351 0 0 1. 0 
Li2 Li1+ 4 b 0.5 0 0 1. 0 
Be1 Be2+ 8 g 0.62245 0.21267 0.250 1. 0 
Be2 Be2+ 4 c 0.5 0.58203 0.250 1. 0 
H1 H1- 16 h 0.32129 0.15592 0.39950 1. 0 
H2 H1- 8 f 0.5 0.69318 0.09830 1. 0 
H3 H1- 8 g 0.12170 0.95800 0.250 1. 0 
H4 H1- 4 c 0.5 0.09144 0.250 1. 0 

#End of data_162773-ICSD


