data_246526-ICSD
#?2014 by Fachinformationszentrum Karlsruhe, and the U.S. Secretary of 
#Commerce on behalf of the United States.  All rights reserved.
_database_code_ICSD                246526
_audit_creation_date               2009/08/01
_chemical_name_systematic
;
Calcium Tricopper Tetrakis(titanate)
;
_chemical_formula_structural       'Ca Cu3 (Ti O3)4'
_chemical_formula_sum              'Ca1 Cu3 O12 Ti4'
_publ_section_title
;
Ab initio calculations of Ca Cu3 Ti4 O12 under high pressure: 
Structural and electronic properties
;
loop_
_citation_id
_citation_journal_abbrev
_citation_year
_citation_journal_volume
_citation_page_first
_citation_page_last
_citation_journal_id_ASTM
primary 'Physical Review, Serie 3. B - Condensed Matter (18,1978-)'
 2005 72 014106-1 014106-5 PRBMDO
_publ_author_name
;
Fagan, S.B.;Souza Filho, A.G.;Ayala, A.P.;Mendes Filho, J.
;
_cell_length_a                     10.1823
_cell_length_b                     10.1823
_cell_length_c                     12.4708
_cell_angle_alpha                  90.
_cell_angle_beta                   90.
_cell_angle_gamma                  120.
_cell_volume                       1119.74
_cell_formula_units_Z              6
_symmetry_space_group_name_H-M     'R -3 H'
_symmetry_Int_Tables_number        148
loop_
_symmetry_equiv_pos_site_id
_symmetry_equiv_pos_as_xyz
  1	'x-y, x, -z'
  2	'y, -x+y, -z'
  3	'-x, -y, -z'
  4	'-x+y, -x, z'
  5	'-y, x-y, z'
  6	'x, y, z'
  7	'x-y+.6666, x+.3333, -z+.3333'
  8	'x-y+.3333, x+.6666, -z+.6666'
  9	'y+.6666, -x+y+.3333, -z+.3333'
 10	'y+.3333, -x+y+.6666, -z+.6666'
 11	'-x+.6666, -y+.3333, -z+.3333'
 12	'-x+.3333, -y+.6666, -z+.6666'
 13	'-x+y+.6666, -x+.3333, z+.3333'
 14	'-x+y+.3333, -x+.6666, z+.6666'
 15	'-y+.6666, x-y+.3333, z+.3333'
 16	'-y+.3333, x-y+.6666, z+.6666'
 17	'x+.6666, y+.3333, z+.3333'
 18	'x+.3333, y+.6666, z+.6666'
loop_
_atom_type_symbol
_atom_type_oxidation_number
Ca2+	2
Cu2+	2
O2-	-2
Ti4+	4
loop_
_atom_site_label
_atom_site_type_symbol
_atom_site_symmetry_multiplicity
_atom_site_Wyckoff_symbol
_atom_site_fract_x
_atom_site_fract_y
_atom_site_fract_z
_atom_site_occupancy
_atom_site_attached_hydrogens
Ca1 Ca2+ 3 a 0 0 0 1. 0 
Ca2 Ca2+ 3 b 0 0 0.5 1. 0 
Cu1 Cu2+ 9 e 0.5 0 0 1. 0 
Cu2 Cu2+ 9 d 0.5 0 0.5 1. 0 
Ti1 Ti4+ 6 c 0 0 0.248 1. 0 
Ti2 Ti4+ 18 f 0 0.5 0.747 1. 0 
O1 O2- 18 f 0.141 0.154 0.161 1. 0 
O2 O2- 18 f 0.690 0.196 0.001 1. 0 
O3 O2- 18 f 0.4096 0.296 0.291 1. 0 
O4 O2- 18 f 0.109 0.403 0.209 1. 0 

#End of data_246526-ICSD


