data_245971-ICSD
#?2014 by Fachinformationszentrum Karlsruhe, and the U.S. Secretary of 
#Commerce on behalf of the United States.  All rights reserved.
_database_code_ICSD                245971
_audit_creation_date               2009/02/01
_audit_update_record               2013/08/01
_chemical_name_systematic          'Tricesium Dilithium Pentachloride'
_chemical_formula_structural       'Cs3 Li2 Cl5'
_chemical_formula_sum              'Cl5 Cs3 Li2'
_publ_section_title
;
Ab initio prediction of the low-temperature phase diagrams in the 
systems CsX-LiX (X = F, Cl, Br, I)
;
loop_
_citation_id
_citation_journal_abbrev
_citation_year
_citation_journal_volume
_citation_journal_issue
_citation_page_first
_citation_page_last
_citation_journal_id_ASTM
primary 'Solid State Sciences' 2008 10 6 804 813 SSSCFJ
_publ_author_name
;
Pentin, I.V.;Schoen, J.C.;Jansen, M.
;
_cell_length_a                     7.41
_cell_length_b                     25.25
_cell_length_c                     5.94
_cell_angle_alpha                  90.
_cell_angle_beta                   142.91
_cell_angle_gamma                  90.
_cell_volume                       670.24
_cell_formula_units_Z              2
_symmetry_space_group_name_H-M     'C 1 m 1'
_symmetry_Int_Tables_number        8
loop_
_symmetry_equiv_pos_site_id
_symmetry_equiv_pos_as_xyz
  1	'x, -y, z'
  2	'x, y, z'
  3	'x+.5, -y+.5, z'
  4	'x+.5, y+.5, z'
loop_
_atom_type_symbol
_atom_type_oxidation_number
Cl1-	-1
Cs1+	1
Li1+	1
loop_
_atom_site_label
_atom_site_type_symbol
_atom_site_symmetry_multiplicity
_atom_site_Wyckoff_symbol
_atom_site_fract_x
_atom_site_fract_y
_atom_site_fract_z
_atom_site_occupancy
_atom_site_attached_hydrogens
Cs1 Cs1+ 4 b 0.24837 0.11452 0.74037 1. 0 
Cs2 Cs1+ 2 a 0.25461 0 0.24875 1. 0 
Li1 Li1+ 4 b 0.73805 0.21766 0.70072 1. 0 
Cl1 Cl1- 2 a 0.77655 0 0.28555 1. 0 
Cl2 Cl1- 4 b 0.78197 0.11581 0.79092 1. 0 
Cl3 Cl1- 4 b 0.74565 0.77129 0.26554 1. 0 

#End of data_245971-ICSD


