data_186522-ICSD
#?2014 by Fachinformationszentrum Karlsruhe, and the U.S. Secretary of 
#Commerce on behalf of the United States.  All rights reserved.
_database_code_ICSD                186522
_audit_creation_date               2013/08/01
_chemical_name_systematic          'Dilithium Iron Silicate'
_chemical_formula_structural       'Li2 Fe (Si O4)'
_chemical_formula_sum              'Fe1 Li2 O4 Si1'
_publ_section_title
;
Structural properties and energetics of Li2 Fe Si O4 polymorphs and 
their delithiated products from first-principles
;
loop_
_citation_id
_citation_journal_abbrev
_citation_year
_citation_journal_volume
_citation_journal_issue
_citation_page_first
_citation_page_last
_citation_journal_id_ASTM
primary 'Physical Chemistry Chemical Physics' 2012 14 20 7346 7351 PPCPFQ
_publ_author_name
;
Zhang, P.;Hu, C.H.;Wu, S.Q.;Zhu, Z.Z.;Yang, Y.
;
_cell_length_a                     6.3400
_cell_length_b                     10.7635
_cell_length_c                     5.1010
_cell_angle_alpha                  90.
_cell_angle_beta                   90.
_cell_angle_gamma                  90.
_cell_volume                       348.1
_cell_formula_units_Z              4
_symmetry_space_group_name_H-M     'P m n b'
_symmetry_Int_Tables_number        62
loop_
_symmetry_equiv_pos_site_id
_symmetry_equiv_pos_as_xyz
  1	'x, y+.5, -z+.5'
  2	'-x+.5, y, z'
  3	'x+.5, -y+.5, z+.5'
  4	'-x, -y, -z'
  5	'-x, -y+.5, z+.5'
  6	'x+.5, -y, -z'
  7	'-x+.5, y+.5, -z+.5'
  8	'x, y, z'
loop_
_atom_type_symbol
_atom_type_oxidation_number
Fe2+	2
Li1+	1
O2-	-2
Si4+	4
loop_
_atom_site_label
_atom_site_type_symbol
_atom_site_symmetry_multiplicity
_atom_site_Wyckoff_symbol
_atom_site_fract_x
_atom_site_fract_y
_atom_site_fract_z
_atom_site_occupancy
_atom_site_attached_hydrogens
Li1 Li1+ 8 d 0.0050 0.3314 0.2090 1. 0 
Fe1 Fe2+ 4 c 0.25 0.5811 0.2006 1. 0 
Si1 Si4+ 4 c 0.25 0.4158 0.6951 1. 0 
O1 O2- 4 c 0.25 0.4093 0.3708 1. 0 
O2 O2- 4 c 0.25 0.5629 0.7857 1. 0 
O3 O2- 8 d 0.9619 0.6568 0.1931 1. 0 

#End of data_186522-ICSD


