data_182240-ICSD
#?2014 by Fachinformationszentrum Karlsruhe, and the U.S. Secretary of 
#Commerce on behalf of the United States.  All rights reserved.
_database_code_ICSD                182240
_audit_creation_date               2012/02/01
_chemical_name_systematic
;
Nickel Zinc Iron Oxide (0.625/0.375/2/4)
;
_chemical_formula_structural       'Ni0.625 Zn0.375 Fe2 O4'
_chemical_formula_sum              'Fe2 Ni0.625 O4 Zn0.375'
_publ_section_title
;
First principles study of the electronic and magnetic properties of a 
nickel-zinc ferrite: Znx Ni1-x Fe2 O4
;
loop_
_citation_id
_citation_journal_abbrev
_citation_year
_citation_journal_volume
_citation_journal_issue
_citation_page_first
_citation_page_last
_citation_journal_id_ASTM
primary 'Journal of Magnetism and Magnetic Materials' 2011 323 23 3138 3142 JMMMDC
_publ_author_name                  'Zhu, X.F.;Chen, L.F.'
_cell_length_a                     8.368
_cell_length_b                     8.393
_cell_length_c                     8.415
_cell_angle_alpha                  90.
_cell_angle_beta                   90.
_cell_angle_gamma                  90.
_cell_volume                       591.01
_cell_formula_units_Z              8
_symmetry_space_group_name_H-M     'P 1'
_symmetry_Int_Tables_number        1
loop_
_symmetry_equiv_pos_site_id
_symmetry_equiv_pos_as_xyz
  1	'x, y, z'
loop_
_atom_type_symbol
_atom_type_oxidation_number
Fe3+	3
Ni2+	2
O2-	-2
Zn2+	2
loop_
_atom_site_label
_atom_site_type_symbol
_atom_site_symmetry_multiplicity
_atom_site_Wyckoff_symbol
_atom_site_fract_x
_atom_site_fract_y
_atom_site_fract_z
_atom_site_occupancy
_atom_site_attached_hydrogens
Zn1 Zn2+ 1 a 0 0 0 1. 0 
Fe1 Fe3+ 1 a 0.5 0 0.5 1. 0 
Fe2 Fe3+ 1 a 0 0.5 0.5 1. 0 
Zn2 Zn2+ 1 a 0.5 0.5 0 1. 0 
Fe3 Fe3+ 1 a 0.750 0.250 0.750 1. 0 
Zn3 Zn2+ 1 a 0.250 0.750 0.750 1. 0 
Fe4 Fe3+ 1 a 0.250 0.250 0.250 1. 0 
Fe5 Fe3+ 1 a 0.750 0.750 0.250 1. 0 
Ni1 Ni2+ 1 a 0.625 0.625 0.625 1. 0 
Ni2 Ni2+ 1 a 0.375 0.875 0.125 1. 0 
Fe6 Fe3+ 1 a 0.875 0.125 0.375 1. 0 
Fe7 Fe3+ 1 a 0.125 0.375 0.875 1. 0 
Ni3 Ni2+ 1 a 0.125 0.125 0.625 1. 0 
Ni4 Ni2+ 1 a 0.125 0.625 0.125 1. 0 
Fe8 Fe3+ 1 a 0.625 0.125 0.125 1. 0 
Fe9 Fe3+ 1 a 0.875 0.375 0.125 1. 0 
Fe10 Fe3+ 1 a 0.875 0.875 0.625 1. 0 
Ni5 Ni2+ 1 a 0.375 0.375 0.625 1. 0 
Fe11 Fe3+ 1 a 0.375 0.625 0.375 1. 0 
Fe12 Fe3+ 1 a 0.375 0.125 0.875 1. 0 
Fe13 Fe3+ 1 a 0.875 0.625 0.875 1. 0 
Fe14 Fe3+ 1 a 0.625 0.875 0.875 1. 0 
Fe15 Fe3+ 1 a 0.625 0.375 0.375 1. 0 
Fe16 Fe3+ 1 a 0.125 0.875 0.375 1. 0 
O1 O2- 1 a 0.38 0.38 0.38 1. 0 
O2 O2- 1 a 0.62 0.12 0.88 1. 0 
O3 O2- 1 a 0.12 0.88 0.62 1. 0 
O4 O2- 1 a 0.88 0.62 0.12 1. 0 
O5 O2- 1 a 0.13 0.63 0.37 1. 0 
O6 O2- 1 a 0.87 0.87 0.87 1. 0 
O7 O2- 1 a 0.63 0.37 0.13 1. 0 
O8 O2- 1 a 0.37 0.13 0.63 1. 0 
O9 O2- 1 a 0.88 0.88 0.38 1. 0 
O10 O2- 1 a 0.88 0.38 0.88 1. 0 
O11 O2- 1 a 0.38 0.88 0.88 1. 0 
O12 O2- 1 a 0.12 0.62 0.88 1. 0 
O13 O2- 1 a 0.12 0.12 0.38 1. 0 
O14 O2- 1 a 0.62 0.62 0.38 1. 0 
O15 O2- 1 a 0.62 0.38 0.62 1. 0 
O16 O2- 1 a 0.62 0.88 0.12 1. 0 
O17 O2- 1 a 0.12 0.38 0.12 1. 0 
O18 O2- 1 a 0.38 0.12 0.12 1. 0 
O19 O2- 1 a 0.38 0.62 0.62 1. 0 
O20 O2- 1 a 0.88 0.12 0.62 1. 0 
O21 O2- 1 a 0.63 0.13 0.37 1. 0 
O22 O2- 1 a 0.63 0.63 0.87 1. 0 
O23 O2- 1 a 0.13 0.13 0.87 1. 0 
O24 O2- 1 a 0.37 0.37 0.87 1. 0 
O25 O2- 1 a 0.37 0.87 0.37 1. 0 
O26 O2- 1 a 0.87 0.37 0.37 1. 0 
O27 O2- 1 a 0.13 0.87 0.13 1. 0 
O28 O2- 1 a 0.13 0.37 0.63 1. 0 
O29 O2- 1 a 0.63 0.87 0.63 1. 0 
O30 O2- 1 a 0.87 0.63 0.63 1. 0 
O31 O2- 1 a 0.87 0.13 0.13 1. 0 
O32 O2- 1 a 0.37 0.63 0.13 1. 0 

#End of data_182240-ICSD


