data_168222-ICSD
#?2014 by Fachinformationszentrum Karlsruhe, and the U.S. Secretary of 
#Commerce on behalf of the United States.  All rights reserved.
_database_code_ICSD                168222
_audit_creation_date               2011/02/01
_audit_update_record               2012/02/01
_chemical_name_systematic
;
Calcium Bis(tetrahydridoborate) - Alpha
;
_chemical_formula_structural       'Ca (B H4)2'
_chemical_formula_sum              'H8 B2 Ca1'
_publ_section_title
;
Calcium borohydride for hydrogen storage: a computational study of Ca 
(B H4)2 crystal structures and the Ca B2 Hx intermediate
;
loop_
_citation_id
_citation_journal_abbrev
_citation_year
_citation_journal_volume
_citation_page_first
_citation_page_last
_citation_journal_id_ASTM
primary 'Journal of Physical Chemistry C' 2010 114 9503 9509 JPCCCK
_publ_author_name                  'Frankcombe, T.J.'
_cell_length_a                     8.7510
_cell_length_b                     7.4927
_cell_length_c                     7.8964
_cell_angle_alpha                  90.
_cell_angle_beta                   123.64
_cell_angle_gamma                  90.
_cell_volume                       431.05
_cell_formula_units_Z              4
_symmetry_space_group_name_H-M     'C 1 2/c 1'
_symmetry_Int_Tables_number        15
loop_
_symmetry_equiv_pos_site_id
_symmetry_equiv_pos_as_xyz
  1	'x, -y, z+.5'
  2	'-x, -y, -z'
  3	'-x, y, -z+.5'
  4	'x, y, z'
  5	'x+.5, -y+.5, z+.5'
  6	'-x+.5, -y+.5, -z'
  7	'-x+.5, y+.5, -z+.5'
  8	'x+.5, y+.5, z'
loop_
_atom_type_symbol
_atom_type_oxidation_number
B3+	3
Ca2+	2
H1-	-1
loop_
_atom_site_label
_atom_site_type_symbol
_atom_site_symmetry_multiplicity
_atom_site_Wyckoff_symbol
_atom_site_fract_x
_atom_site_fract_y
_atom_site_fract_z
_atom_site_occupancy
_atom_site_attached_hydrogens
Ca1 Ca2+ 4 e 0 0.87497 0.25 1. 0 
B1 B3+ 8 f 0.72125 0.62488 0.19236 1. 0 
H1 H1- 8 f 0.66864 0.48971 0.08625 1. 0 
H2 H1- 8 f 0.66245 0.63520 0.30056 1. 0 
H3 H1- 8 f 0.88822 0.61456 0.30057 1. 0 
H4 H1- 8 f 0.16783 0.26010 0.08634 1. 0 

#End of data_168222-ICSD


