data_187459-ICSD
#?2014 by Fachinformationszentrum Karlsruhe, and the U.S. Secretary of 
#Commerce on behalf of the United States.  All rights reserved.
_database_code_ICSD                187459
_audit_creation_date               2013/08/01
_chemical_name_systematic          'Magnesium Bis(tetrahydridoborate)'
_chemical_formula_structural       'Mg (B H4)2'
_chemical_formula_sum              'H8 B2 Mg1'
_publ_section_title
;
First-principles determination of the structure of magnesium 
borohydride
;
loop_
_citation_id
_citation_journal_abbrev
_citation_year
_citation_journal_volume
_citation_journal_issue
_citation_page_first
_citation_page_last
_citation_journal_id_ASTM
primary 'Physical Review Letters' 2012 109 24 245503-1 245503-5 PRLTAO
_publ_author_name
;
Zhou, Xiang-Feng;Oganov, Artem R.;Qian, Guang-Rui;Zhu, Qiang
;
_cell_length_a                     5.58
_cell_length_b                     5.58
_cell_length_c                     5.99
_cell_angle_alpha                  90.
_cell_angle_beta                   90.
_cell_angle_gamma                  90.
_cell_volume                       186.51
_cell_formula_units_Z              2
_symmetry_space_group_name_H-M     'P -4'
_symmetry_Int_Tables_number        81
loop_
_symmetry_equiv_pos_site_id
_symmetry_equiv_pos_as_xyz
  1	'-y, x, -z'
  2	'y, -x, -z'
  3	'-x, -y, z'
  4	'x, y, z'
loop_
_atom_type_symbol
_atom_type_oxidation_number
B3+	3
H1-	-1
Mg2+	2
loop_
_atom_site_label
_atom_site_type_symbol
_atom_site_symmetry_multiplicity
_atom_site_Wyckoff_symbol
_atom_site_fract_x
_atom_site_fract_y
_atom_site_fract_z
_atom_site_occupancy
_atom_site_attached_hydrogens
Mg1 Mg2+ 1 a 0 0 0 1. 0 
Mg2 Mg2+ 1 d 0.5 0.5 0.5 1. 0 
B1 B3+ 4 h 0.250 0.250 0.250 1. 0 
H1 H1- 4 h 0.459 0.282 0.210 1. 0 
H2 H1- 4 h 0.139 0.327 0.089 1. 0 
H3 H1- 4 h 0.223 0.038 0.286 1. 0 
H4 H1- 4 h 0.174 0.354 0.416 1. 0 

#End of data_187459-ICSD


