data_96722-ICSD
#?2014 by Fachinformationszentrum Karlsruhe, and the U.S. Secretary of 
#Commerce on behalf of the United States.  All rights reserved.
_database_code_ICSD                96722
_audit_creation_date               2004/10/01
_chemical_name_systematic          'Dialuminium Silicate Oxide'
_chemical_formula_structural       'Al2 (Si O4) O'
_chemical_formula_sum              'Al2 O5 Si1'
_chemical_name_mineral             Sillimanite
_publ_section_title
;
Computer simulation of defect structure in sillimanite and mullites
;
loop_
_citation_id
_citation_journal_abbrev
_citation_year
_citation_journal_volume
_citation_page_first
_citation_page_last
_citation_journal_id_ASTM
primary 'Physics and Chemistry of Minerals' 2002 29 341 345 PCMIDU
_publ_author_name
;
Wondraczek, L.;Heide, G.;Kilo, M.;Nedeljkovic, N.;Borchardt, 
G.;Jackson, R.A.
;
_cell_length_a                     7.588
_cell_length_b                     7.688
_cell_length_c                     5.777
_cell_angle_alpha                  90
_cell_angle_beta                   90
_cell_angle_gamma                  90
_cell_volume                       337.01
_cell_formula_units_Z              4
_symmetry_space_group_name_H-M     'P b n m'
_symmetry_Int_Tables_number        62
loop_
_symmetry_equiv_pos_site_id
_symmetry_equiv_pos_as_xyz
  1	'-x+.5, y+.5, z'
  2	'x, y, -z+.5'
  3	'x+.5, -y+.5, z+.5'
  4	'-x, -y, -z'
  5	'x+.5, -y+.5, -z'
  6	'-x, -y, z+.5'
  7	'-x+.5, y+.5, -z+.5'
  8	'x, y, z'
loop_
_atom_type_symbol
_atom_type_oxidation_number
Al3+	3
O2-	-2
Si4+	4
loop_
_atom_site_label
_atom_site_type_symbol
_atom_site_symmetry_multiplicity
_atom_site_Wyckoff_symbol
_atom_site_fract_x
_atom_site_fract_y
_atom_site_fract_z
_atom_site_occupancy
_atom_site_attached_hydrogens
Al1 Al3+ 4 a 0 0 0 1. 0 
Al2 Al3+ 4 c 0.1417 0.3449 0.250 1. 0 
Si1 Si4+ 4 c 0.1533 0.3402 0.750 1. 0 
O1 O2- 4 c 0.3605 0.4094 0.750 1. 0 
O2 O2- 4 c 0.3569 0.4341 0.250 1. 0 
O3 O2- 4 c 0.4763 0.0015 0.750 1. 0 
O4 O2- 8 d 0.1252 0.223 0.5145 1. 0 

#End of data_96722-ICSD


