data_168803-ICSD
#?2014 by Fachinformationszentrum Karlsruhe, and the U.S. Secretary of 
#Commerce on behalf of the United States.  All rights reserved.
_database_code_ICSD                168803
_audit_creation_date               2011/02/01
_chemical_name_systematic
;
Lithium Tetrahydridoborate - Ht, Hypothetical
;
_chemical_formula_structural       'Li (B H4)'
_chemical_formula_sum              'H4 B1 Li1'
_publ_section_title
;
First-principles determination of the ground-state structure of Li B 
H4
;
loop_
_citation_id
_citation_journal_abbrev
_citation_year
_citation_journal_volume
_citation_page_first
_citation_page_last
_citation_journal_id_ASTM
primary 'Physical Review Letters' 2010 104 215501-1 215501-4 PRLTAO
_publ_author_name                  'Tekin, A.;Caputo, R.;Zuettel, A.'
_cell_length_a                     11.343(4)
_cell_length_b                     6.993(4)
_cell_length_c                     8.780(4)
_cell_angle_alpha                  90.
_cell_angle_beta                   90.
_cell_angle_gamma                  90.
_cell_volume                       696.44
_cell_formula_units_Z              4
_symmetry_space_group_name_H-M     'P 1 2/c 1'
_symmetry_Int_Tables_number        13
loop_
_symmetry_equiv_pos_site_id
_symmetry_equiv_pos_as_xyz
  1	'x, -y, z+.5'
  2	'-x, -y, -z'
  3	'-x, y, -z+.5'
  4	'x, y, z'
loop_
_atom_type_symbol
_atom_type_oxidation_number
B3+	3
H1-	-1
Li1+	1
loop_
_atom_site_label
_atom_site_type_symbol
_atom_site_symmetry_multiplicity
_atom_site_Wyckoff_symbol
_atom_site_fract_x
_atom_site_fract_y
_atom_site_fract_z
_atom_site_occupancy
_atom_site_attached_hydrogens
Li1 Li1+ 4 g 0.1305 0.4976 0.7484 1. 0 
B1 B3+ 4 g 0.8075 0.5522 0.0622 1. 0 
H1 H1- 4 g 0.9254 0.6570 -0.0010 1. 0 
H2 H1- 4 g 0.8718 0.3988 0.9578 1. 0 
H3 H1- 4 g 0.6938 0.5165 0.2688 1. 0 
H4 H1- 4 g 0.7339 0.6374 0.0310 1. 0 

#End of data_168803-ICSD


