data_169708-ICSD
#?2014 by Fachinformationszentrum Karlsruhe, and the U.S. Secretary of 
#Commerce on behalf of the United States.  All rights reserved.
_database_code_ICSD                169708
_audit_creation_date               2011/08/01
_chemical_name_systematic          'Sodium Gallium Tetrahydride'
_chemical_formula_structural       'Na Ga H4'
_chemical_formula_sum              'H4 Ga1 Na1'
_publ_section_title
;
Ab initio thermodynamic and elastic properties of A Ga H4 hydrides  
(A= Li, Na, K, Rb and Cs)
;
loop_
_citation_id
_citation_journal_abbrev
_citation_year
_citation_journal_volume
_citation_page_first
_citation_page_last
_citation_journal_id_ASTM
primary 'Physical Review, Serie 3. B - Condensed Matter (18,1978-)'
 2010 82 024110-1 024110-12 PRBMDO
_publ_author_name
;
Herbst, J.F.;Hector, L.G.jr.;Wolf, W.
;
_cell_length_a                     7.0662
_cell_length_b                     6.4163
_cell_length_c                     7.1387
_cell_angle_alpha                  90.
_cell_angle_beta                   90.
_cell_angle_gamma                  90.
_cell_volume                       323.66
_cell_formula_units_Z              4
_symmetry_space_group_name_H-M     'C m c m'
_symmetry_Int_Tables_number        63
loop_
_symmetry_equiv_pos_site_id
_symmetry_equiv_pos_as_xyz
  1	'-x, y, -z+.5'
  2	'-x, -y, z+.5'
  3	'-x, y, z'
  4	'-x, -y, -z'
  5	'x, -y, z+.5'
  6	'x, y, -z+.5'
  7	'x, -y, -z'
  8	'x, y, z'
  9	'-x+.5, y+.5, -z+.5'
 10	'-x+.5, -y+.5, z+.5'
 11	'-x+.5, y+.5, z'
 12	'-x+.5, -y+.5, -z'
 13	'x+.5, -y+.5, z+.5'
 14	'x+.5, y+.5, -z+.5'
 15	'x+.5, -y+.5, -z'
 16	'x+.5, y+.5, z'
loop_
_atom_type_symbol
_atom_type_oxidation_number
Ga3+	3
H1-	-1
Na1+	1
loop_
_atom_site_label
_atom_site_type_symbol
_atom_site_symmetry_multiplicity
_atom_site_Wyckoff_symbol
_atom_site_fract_x
_atom_site_fract_y
_atom_site_fract_z
_atom_site_occupancy
_atom_site_attached_hydrogens
Na1 Na1+ 4 c 0 0.3438 0.250 1. 0 
Ga1 Ga3+ 4 c 0 -0.1595 0.250 1. 0 
H1 H1- 8 f 0 0.6911 0.4286 1. 0 
H2 H1- 8 g 0.1827 -0.0134 0.250 1. 0 

#End of data_169708-ICSD


