data_153681-ICSD
#?2014 by Fachinformationszentrum Karlsruhe, and the U.S. Secretary of 
#Commerce on behalf of the United States.  All rights reserved.
_database_code_ICSD                153681
_audit_creation_date               2007/04/01
_audit_update_record               2014/08/01
_chemical_name_systematic
;
Trisodium Hexahydridoaluminate - Gamma
;
_chemical_formula_structural       'Na3 (Al H6)'
_chemical_formula_sum              'H6 Al1 Na3'
_publ_section_title
;
First-principles investigations of aluminum hydrides: M3 Al H6 (M = 
Na, K)
;
loop_
_citation_id
_citation_journal_abbrev
_citation_year
_citation_journal_volume
_citation_page_first
_citation_page_last
_citation_journal_id_ASTM
primary 'Physical Review, Serie 3. B - Condensed Matter (18,1978-)'
 2005 71 092103-1 092103-4 PRBMDO
_publ_author_name
;
Vajeeston, P.;Ravindran, P.;Kjekshus, A.;Fjellvag, H.
;
_cell_length_a                     4.8651
_cell_length_b                     8.3188
_cell_length_c                     15.8384
_cell_angle_alpha                  90.
_cell_angle_beta                   90.
_cell_angle_gamma                  90.
_cell_volume                       641.01
_cell_formula_units_Z              8
_symmetry_space_group_name_H-M     'P b c m'
_symmetry_Int_Tables_number        57
loop_
_symmetry_equiv_pos_site_id
_symmetry_equiv_pos_as_xyz
  1	'x, -y+.5, z+.5'
  2	'-x, y+.5, z'
  3	'x, y, -z+.5'
  4	'-x, -y, -z'
  5	'-x, y+.5, -z+.5'
  6	'x, -y+.5, -z'
  7	'-x, -y, z+.5'
  8	'x, y, z'
loop_
_atom_type_symbol
_atom_type_oxidation_number
Al3+	3
H1-	-1
Na1+	1
loop_
_atom_site_label
_atom_site_type_symbol
_atom_site_symmetry_multiplicity
_atom_site_Wyckoff_symbol
_atom_site_fract_x
_atom_site_fract_y
_atom_site_fract_z
_atom_site_occupancy
_atom_site_attached_hydrogens
Na1 Na1+ 8 e -0.3037 -0.0901 0.6535 1. 0 
Na2 Na1+ 8 e -0.1853 0.2507 0.8341 1. 0 
Na3 Na1+ 8 e -0.2649 -0.0838 0.0515 1. 0 
Al1 Al3+ 4 d 0.2616 0.0785 0.750 1. 0 
Al2 Al3+ 4 c 0.2154 -0.250 0.5 1. 0 
H1 H1- 4 d 0.1338 0.2658 0.750 1. 0 
H2 H1- 4 d 0.3977 -0.1061 0.750 1. 0 
H3 H1- 8 e 0.4712 0.1299 0.6732 1. 0 
H4 H1- 8 e -0.0368 -0.1823 0.5620 1. 0 
H5 H1- 8 e 0.4519 -0.1685 0.5621 1. 0 
H6 H1- 8 e 0.0475 0.0254 0.6744 1. 0 
H7 H1- 8 e 0.2215 -0.0817 0.4455 1. 0 

#End of data_153681-ICSD


