data_180388-ICSD
#?2014 by Fachinformationszentrum Karlsruhe, and the U.S. Secretary of 
#Commerce on behalf of the United States.  All rights reserved.
_database_code_ICSD                180388
_audit_creation_date               2011/08/01
_chemical_name_systematic
;
Lithium Imide (1.75/1.25) - Hypothetical, Stable
;
_chemical_formula_structural       'Li1.75 N H1.25'
_chemical_formula_sum              'H1.25 Li1.75 N1'
_publ_section_title
;
Theoretical investigation of intermediate phases between Li2 N H and 
Li N H2
;
loop_
_citation_id
_citation_journal_abbrev
_citation_year
_citation_journal_volume
_citation_page_first
_citation_page_last
_citation_journal_id_ASTM
primary 'Physical Review, Serie 3. B - Condensed Matter (18,1978-)'
 2010 82 094112-1 094112-6 PRBMDO
_publ_author_name                  'Zhang Feng;Wang Yan;Chou, M.-Y.'
_cell_length_a                     7.15
_cell_length_b                     10.51
_cell_length_c                     7.10
_cell_angle_alpha                  90.
_cell_angle_beta                   90.
_cell_angle_gamma                  90.
_cell_volume                       533.54
_cell_formula_units_Z              16
_symmetry_space_group_name_H-M     'P n a 21'
_symmetry_Int_Tables_number        33
loop_
_symmetry_equiv_pos_site_id
_symmetry_equiv_pos_as_xyz
  1	'x+.5, -y+.5, z'
  2	'-x+.5, y+.5, z+.5'
  3	'-x, -y, z+.5'
  4	'x, y, z'
loop_
_atom_type_symbol
_atom_type_oxidation_number
H1+	1
Li1+	1
N3-	-3
loop_
_atom_site_label
_atom_site_type_symbol
_atom_site_symmetry_multiplicity
_atom_site_Wyckoff_symbol
_atom_site_fract_x
_atom_site_fract_y
_atom_site_fract_z
_atom_site_occupancy
_atom_site_attached_hydrogens
Li1 Li1+ 4 a 0.010 0.105 0.409 1. 0 
Li2 Li1+ 4 a 0.935 0.652 0.362 1. 0 
Li3 Li1+ 4 a 0.003 0.886 0.326 1. 0 
Li4 Li1+ 4 a 0.252 0.872 0.099 1. 0 
Li5 Li1+ 4 a 0.233 0.649 0.164 1. 0 
Li6 Li1+ 4 a 0.192 0.089 0.110 1. 0 
Li7 Li1+ 4 a 0.305 0.419 0.119 1. 0 
N1 N3- 4 a 0.999 0.770 0.594 1. 0 
N2 N3- 4 a 0.990 0.758 0.126 1. 0 
N3 N3- 4 a 0.231 0.985 0.353 1. 0 
N4 N3- 4 a 0.275 0.505 0.365 1. 0 
H1 H1+ 4 a 0.021 0.290 0.208 1. 0 
H2 H1+ 4 a 0.999 0.294 0.502 1. 0 
H3 H1+ 4 a 0.365 0.979 0.864 1. 0 
H4 H1+ 4 a 0.158 0.547 0.874 1. 0 
H5 H1+ 4 a 0.127 0.740 0.543 1. 0 

#End of data_180388-ICSD


