data_173445-ICSD
#?2014 by Fachinformationszentrum Karlsruhe, and the U.S. Secretary of 
#Commerce on behalf of the United States.  All rights reserved.
_database_code_ICSD                173445
_audit_creation_date               2009/02/01
_audit_update_record               2010/02/01
_chemical_name_systematic
;
Potassium Beryllium Hydride - Alpha
;
_chemical_formula_structural       'K Be H3'
_chemical_formula_sum              'H3 Be1 K1'
_publ_section_title
;
Structural phase stability studies on M Be H3 (M= Li, Na, K, Rb, Cs) 
from density functional calculations
;
loop_
_citation_id
_citation_journal_abbrev
_citation_year
_citation_journal_volume
_citation_journal_issue
_citation_page_first
_citation_page_last
_citation_journal_id_ASTM
primary 'Inorganic Chemistry' 2008 47 2 508 514 INOCAJ
_publ_author_name
;
Vajeeston, P.;Ravindran, P.;Fjellvag, H.
;
_cell_length_a                     7.0850
_cell_length_b                     5.5621
_cell_length_c                     8.9483
_cell_angle_alpha                  90.000
_cell_angle_beta                   107.450
_cell_angle_gamma                  90.000
_cell_volume                       336.4
_cell_formula_units_Z              4
_symmetry_space_group_name_H-M     'P 1 21/c 1'
_symmetry_Int_Tables_number        14
loop_
_symmetry_equiv_pos_site_id
_symmetry_equiv_pos_as_xyz
  1	'x, -y+.5, z+.5'
  2	'-x, -y, -z'
  3	'-x, y+.5, -z+.5'
  4	'x, y, z'
loop_
_atom_type_symbol
_atom_type_oxidation_number
Be2+	2
H1-	-1
K1+	1
loop_
_atom_site_label
_atom_site_type_symbol
_atom_site_symmetry_multiplicity
_atom_site_Wyckoff_symbol
_atom_site_fract_x
_atom_site_fract_y
_atom_site_fract_z
_atom_site_occupancy
_atom_site_attached_hydrogens
K1 K1+ 4 e 0.2365 0.7448 0.2168 1.000 0 
Be1 Be2+ 4 e 0.2508 0.2534 0.9979 1.000 0 
H1 H1- 4 e 0.3842 0.3263 0.1395 1.000 0 
H2 H1- 4 e 0.1391 0.4262 0.8963 1.000 0 
H3 H1- 4 e 0.2168 0.0100 0.9638 1.000 0 

#End of data_173445-ICSD


