data_168232-ICSD
#?2014 by Fachinformationszentrum Karlsruhe, and the U.S. Secretary of 
#Commerce on behalf of the United States.  All rights reserved.
_database_code_ICSD                168232
_audit_creation_date               2011/02/01
_chemical_name_systematic
;
Calcium Boron Hydride (1/2/3) - (1,2),p21/c, Hypothetical
;
_chemical_formula_structural       'Ca (B2 H3)'
_chemical_formula_sum              'H3 B2 Ca1'
_publ_section_title
;
Calcium borohydride for hydrogen storage: a computational study of Ca 
(B H4)2 crystal structures and the Ca B2 Hx intermediate
;
loop_
_citation_id
_citation_journal_abbrev
_citation_year
_citation_journal_volume
_citation_page_first
_citation_page_last
_citation_journal_id_ASTM
primary 'Journal of Physical Chemistry C' 2010 114 9503 9509 JPCCCK
_publ_author_name                  'Frankcombe, T.J.'
_cell_length_a                     12.8105
_cell_length_b                     4.0825
_cell_length_c                     3.9034
_cell_angle_alpha                  90.
_cell_angle_beta                   90.
_cell_angle_gamma                  90.
_cell_volume                       204.14
_cell_formula_units_Z              4
_symmetry_space_group_name_H-M     'P 1 1 21/a'
_symmetry_Int_Tables_number        14
loop_
_symmetry_equiv_pos_site_id
_symmetry_equiv_pos_as_xyz
  1	'x+.5, y, -z+.5'
  2	'-x, -y, -z'
  3	'-x+.5, -y, z+.5'
  4	'x, y, z'
loop_
_atom_type_symbol
_atom_type_oxidation_number
B.5+	.5
Ca2+	2
H1-	-1
loop_
_atom_site_label
_atom_site_type_symbol
_atom_site_symmetry_multiplicity
_atom_site_Wyckoff_symbol
_atom_site_fract_x
_atom_site_fract_y
_atom_site_fract_z
_atom_site_occupancy
_atom_site_attached_hydrogens
Ca1 Ca2+ 4 e 0.15810 0.25 0.00700 1. 0 
B1 B.5+ 4 e 0.98000 0.25 0.55000 1. 0 
B2 B.5+ 4 e 0.76200 0.25 0.04000 1. 0 
H1 H1- 4 e 0.70060 0.02533 0.04797 1. 0 
H2 H1- 4 e 0.94997 0.24972 0.84521 1. 0 
H3 H1- 4 e 0.15529 0.75698 0.80489 1. 0 

#End of data_168232-ICSD


