data_163219-ICSD
#?2014 by Fachinformationszentrum Karlsruhe, and the U.S. Secretary of 
#Commerce on behalf of the United States.  All rights reserved.
_database_code_ICSD                163219
_audit_creation_date               2009/08/01
_chemical_name_systematic
;
Lithium Lanthanum Titanate (0.13/0.63/1)
;
_chemical_formula_structural       'Li0.125 La0.625 (Ti O3)'
_chemical_formula_sum              'La0.625 Li0.125 O3 Ti1'
_publ_section_title
;
Local structure of the Li1/8 La5/8 Ti O3 (LLTO) ionic conductor by 
theoretical simulations
;
loop_
_citation_id
_citation_journal_abbrev
_citation_year
_citation_journal_volume
_citation_page_first
_citation_page_last
_citation_journal_id_ASTM
primary 'Journal of Physics: Conference Series' 2008 117 012008-1 012008-8 JPCSDZ
_publ_author_name                  'Catti, M.'
_cell_length_a                     7.7522
_cell_length_b                     7.7522
_cell_length_c                     7.7464
_cell_angle_alpha                  90.
_cell_angle_beta                   90.
_cell_angle_gamma                  90.
_cell_volume                       465.53
_cell_formula_units_Z              8
_symmetry_space_group_name_H-M     'P 1 m 1'
_symmetry_Int_Tables_number        6
loop_
_symmetry_equiv_pos_site_id
_symmetry_equiv_pos_as_xyz
  1	'x, -y, z'
  2	'x, y, z'
loop_
_atom_type_symbol
_atom_type_oxidation_number
La3+	3
Li1+	1
O2-	-2
Ti4+	4
loop_
_atom_site_label
_atom_site_type_symbol
_atom_site_symmetry_multiplicity
_atom_site_Wyckoff_symbol
_atom_site_fract_x
_atom_site_fract_y
_atom_site_fract_z
_atom_site_occupancy
_atom_site_attached_hydrogens
La1 La3+ 1 a 0 0 0.250 1. 0 
La2 La3+ 1 b 0.01058 0.5 0.24992 1. 0 
La3 La3+ 1 a 0.50301 0 0.24993 1. 0 
La4 La3+ 1 b 0.49388 0.5 0.24977 1. 0 
La5 La3+ 1 b 0.01172 0.5 0.74993 1. 0 
Ti1 Ti4+ 2 c 0.25788 0.75656 0.98602 1. 0 
Ti2 Ti4+ 2 c 0.74579 0.24955 0.98982 1. 0 
Ti3 Ti4+ 2 c 0.25779 0.75654 0.51377 1. 0 
Ti4 Ti4+ 2 c 0.74566 0.24953 0.50994 1. 0 
O1 O2- 1 a 0.25040 0 0.03364 1. 0 
O2 O2- 1 b 0.75474 0.5 0.02696 1. 0 
O3 O2- 1 b 0.24442 0.5 0.99736 1. 0 
O4 O2- 1 a 0.75767 0 0.98994 1. 0 
O5 O2- 2 c 0.00239 0.73977 0.01568 1. 0 
O6 O2- 2 c 0.50279 0.75124 0.02102 1. 0 
O7 O2- 2 c 0.25395 0.73345 0.24988 1. 0 
O8 O2- 2 c 0.75227 0.22622 0.24994 1. 0 
O9 O2- 1 b 0.24352 0.5 0.50260 1. 0 
O10 O2- 1 a 0.75671 0 0.51006 1. 0 
O11 O2- 1 a 0.25102 0 0.46614 1. 0 
O12 O2- 1 b 0.75549 0.5 0.47325 1. 0 
O13 O2- 2 c 0.00240 0.74074 0.48393 1. 0 
O14 O2- 2 c 0.50271 0.75055 0.47872 1. 0 
O15 O2- 2 c 0.23369 0.75179 0.74990 1. 0 
O16 O2- 2 c 0.77797 0.26117 0.74991 1. 0 
Li1 Li1+ 1 a 0.83903 0 0.74987 1. 0 

#End of data_163219-ICSD


