data_169709-ICSD
#?2014 by Fachinformationszentrum Karlsruhe, and the U.S. Secretary of 
#Commerce on behalf of the United States.  All rights reserved.
_database_code_ICSD                169709
_audit_creation_date               2011/08/01
_chemical_name_systematic          'Potassium Gallium Tetrahydride'
_chemical_formula_structural       'K Ga H4'
_chemical_formula_sum              'H4 Ga1 K1'
_publ_section_title
;
Ab initio thermodynamic and elastic properties of A Ga H4 hydrides  
(A= Li, Na, K, Rb and Cs)
;
loop_
_citation_id
_citation_journal_abbrev
_citation_year
_citation_journal_volume
_citation_page_first
_citation_page_last
_citation_journal_id_ASTM
primary 'Physical Review, Serie 3. B - Condensed Matter (18,1978-)'
 2010 82 024110-1 024110-12 PRBMDO
_publ_author_name
;
Herbst, J.F.;Hector, L.G.jr.;Wolf, W.
;
_cell_length_a                     9.0956
_cell_length_b                     5.6185
_cell_length_c                     7.3604
_cell_angle_alpha                  90.
_cell_angle_beta                   90.
_cell_angle_gamma                  90.
_cell_volume                       376.14
_cell_formula_units_Z              4
_symmetry_space_group_name_H-M     'P n m a'
_symmetry_Int_Tables_number        62
loop_
_symmetry_equiv_pos_site_id
_symmetry_equiv_pos_as_xyz
  1	'x+.5, y, -z+.5'
  2	'x, -y+.5, z'
  3	'-x+.5, y+.5, z+.5'
  4	'-x, -y, -z'
  5	'-x+.5, -y, z+.5'
  6	'-x, y+.5, -z'
  7	'x+.5, -y+.5, -z+.5'
  8	'x, y, z'
loop_
_atom_type_symbol
_atom_type_oxidation_number
Ga3+	3
H1-	-1
K1+	1
loop_
_atom_site_label
_atom_site_type_symbol
_atom_site_symmetry_multiplicity
_atom_site_Wyckoff_symbol
_atom_site_fract_x
_atom_site_fract_y
_atom_site_fract_z
_atom_site_occupancy
_atom_site_attached_hydrogens
K1 K1+ 4 c 0.1814 0.250 0.1618 1. 0 
Ga1 Ga3+ 4 c 0.5628 0.250 0.8091 1. 0 
H1 H1- 4 c 0.4019 0.250 0.8928 1. 0 
H2 H1- 4 c 0.6890 0.250 0.9590 1. 0 
H3 H1- 8 d 0.4167 0.9802 0.3178 1. 0 

#End of data_169709-ICSD


