data_169706-ICSD
#?2014 by Fachinformationszentrum Karlsruhe, and the U.S. Secretary of 
#Commerce on behalf of the United States.  All rights reserved.
_database_code_ICSD                169706
_audit_creation_date               2011/08/01
_audit_update_record               2012/08/01
_chemical_name_systematic
;
Lithium Gallium Tetrahydride - Monoclinic, Hypothetical,
;
_chemical_formula_structural       'Li Ga H4'
_chemical_formula_sum              'H4 Ga1 Li1'
_publ_section_title
;
Ab initio thermodynamic and elastic properties of A Ga H4 hydrides  
(A= Li, Na, K, Rb and Cs)
;
loop_
_citation_id
_citation_journal_abbrev
_citation_year
_citation_journal_volume
_citation_page_first
_citation_page_last
_citation_journal_id_ASTM
primary 'Physical Review, Serie 3. B - Condensed Matter (18,1978-)'
 2010 82 024110-1 024110-12 PRBMDO
_publ_author_name
;
Herbst, J.F.;Hector, L.G.jr.;Wolf, W.
;
_cell_length_a                     4.8736
_cell_length_b                     7.8523
_cell_length_c                     9.9352
_cell_angle_alpha                  90.
_cell_angle_beta                   48.05
_cell_angle_gamma                  90.
_cell_volume                       282.77
_cell_formula_units_Z              4
_symmetry_space_group_name_H-M     'P 1 21/c 1'
_symmetry_Int_Tables_number        14
loop_
_symmetry_equiv_pos_site_id
_symmetry_equiv_pos_as_xyz
  1	'x, -y+.5, z+.5'
  2	'-x, -y, -z'
  3	'-x, y+.5, -z+.5'
  4	'x, y, z'
loop_
_atom_type_symbol
_atom_type_oxidation_number
Ga3+	3
H1-	-1
Li1+	1
loop_
_atom_site_label
_atom_site_type_symbol
_atom_site_symmetry_multiplicity
_atom_site_Wyckoff_symbol
_atom_site_fract_x
_atom_site_fract_y
_atom_site_fract_z
_atom_site_occupancy
_atom_site_attached_hydrogens
Li1 Li1+ 4 e 0.0689 0.0384 0.1760 1. 0 
Ga1 Ga3+ 4 e 0.2920 0.7049 0.9323 1. 0 
H1 H1- 4 e 0.3475 0.3950 0.2307 1. 0 
H2 H1- 4 e 0.5889 0.1255 0.0240 1. 0 
H3 H1- 4 e 0.0395 0.5900 0.1083 1. 0 
H4 H1- 4 e 0.0668 0.7620 0.8762 1. 0 

#End of data_169706-ICSD


