data_160721-ICSD
#?2014 by Fachinformationszentrum Karlsruhe, and the U.S. Secretary of 
#Commerce on behalf of the United States.  All rights reserved.
_database_code_ICSD                160721
_audit_creation_date               2009/02/01
_chemical_name_systematic          'Dilithium Tungstate'
_chemical_formula_structural       'Li2 (W O4)'
_chemical_formula_sum              'Li2 O4 W1'
_publ_section_title
;
Relationship of Li2 W O4 to the scheelite tungstate oscillators: 
electronic structure and atomic positions from density-functional 
calculations
;
loop_
_citation_id
_citation_journal_abbrev
_citation_year
_citation_journal_volume
_citation_page_first
_citation_page_last
_citation_journal_id_ASTM
primary 'Physical Review, Serie 3. B - Condensed Matter (18,1978-)'
 2008 77 113101-1 113101-4 PRBMDO
2 'Acta Crystallographica (1,1948-23,1967)' 1996 14 229 230 ACCRA9
_publ_author_name                  'Singh, D.-J.'
_cell_length_a                     8.888
_cell_length_b                     8.888
_cell_length_c                     8.888
_cell_angle_alpha                  107.78
_cell_angle_beta                   107.78
_cell_angle_gamma                  107.78
_cell_volume                       571.84
_cell_formula_units_Z              6
_symmetry_space_group_name_H-M     'R -3 R'
_symmetry_Int_Tables_number        148
loop_
_symmetry_equiv_pos_site_id
_symmetry_equiv_pos_as_xyz
  1	'-z, -x, -y'
  2	'-y, -z, -x'
  3	'-x, -y, -z'
  4	'z, x, y'
  5	'y, z, x'
  6	'x, y, z'
loop_
_atom_type_symbol
_atom_type_oxidation_number
Li1+	1
O2-	-2
W6+	6
loop_
_atom_site_label
_atom_site_type_symbol
_atom_site_symmetry_multiplicity
_atom_site_Wyckoff_symbol
_atom_site_fract_x
_atom_site_fract_y
_atom_site_fract_z
_atom_site_occupancy
_atom_site_attached_hydrogens
W1 W6+ 6 f 0.0338 0.4456 0.2714 1. 0 
O1 O2- 6 f 0.1521 0.4582 0.1421 1. 0 
O2 O2- 6 f 0.9192 0.5767 0.2494 1. 0 
O3 O2- 6 f 0.8812 0.2210 0.1846 1. 0 
O4 O2- 6 f 0.1869 0.5296 0.4961 1. 0 
Li1 Li1+ 6 f 0.3701 0.7756 0.6098 1. 0 
Li2 Li1+ 6 f 0.7024 0.1055 0.9343 1. 0 

#End of data_160721-ICSD


