data_183764-ICSD
#?2014 by Fachinformationszentrum Karlsruhe, and the U.S. Secretary of 
#Commerce on behalf of the United States.  All rights reserved.
_database_code_ICSD                183764
_audit_creation_date               2012/08/01
_chemical_name_systematic          'Lithium Iron Silicate'
_chemical_formula_structural       'Li Fe (Si O4)'
_chemical_formula_sum              'Fe1 Li1 O4 Si1'
_publ_section_title
;
Crystal structure, energetics and electrochemistry of Li2 Fe Si O4 
polymorphs from first principles calculations
;
loop_
_citation_id
_citation_journal_abbrev
_citation_year
_citation_journal_volume
_citation_page_first
_citation_page_last
_citation_journal_id_ASTM
primary 'Chemistry of Materials' 2012 24 495 503 CMATEX
_publ_author_name
;
Saracibar, A.;Van der Ven, A.;Arroyo-deDompablo, M.E.
;
_cell_length_a                     6.718
_cell_length_b                     10.389
_cell_length_c                     5.078
_cell_angle_alpha                  90.
_cell_angle_beta                   90.
_cell_angle_gamma                  90.
_cell_volume                       354.41
_cell_formula_units_Z              4
_symmetry_space_group_name_H-M     'P b n 21'
_symmetry_Int_Tables_number        33
loop_
_symmetry_equiv_pos_site_id
_symmetry_equiv_pos_as_xyz
  1	'-x+.5, y+.5, z'
  2	'x+.5, -y+.5, z+.5'
  3	'-x, -y, z+.5'
  4	'x, y, z'
loop_
_atom_type_symbol
_atom_type_oxidation_number
Fe3+	3
Li1+	1
O2-	-2
Si4+	4
loop_
_atom_site_label
_atom_site_type_symbol
_atom_site_symmetry_multiplicity
_atom_site_Wyckoff_symbol
_atom_site_fract_x
_atom_site_fract_y
_atom_site_fract_z
_atom_site_occupancy
_atom_site_attached_hydrogens
Li1 Li1+ 4 a 0.50661 0.65298 0.26028 1. 0 
Fe1 Fe3+ 4 a 0.00880 0.66818 0.26137 1. 0 
Si1 Si4+ 4 a 0.26432 0.90743 0.26344 1. 0 
O1 O2- 4 a 0.27336 0.87973 0.58324 1. 0 
O2 O2- 4 a 0.26281 0.06269 0.20359 1. 0 
O3 O2- 4 a 0.45634 0.83413 0.12681 1. 0 
O4 O2- 4 a 0.06128 0.83914 0.14701 1. 0 

#End of data_183764-ICSD


