data_247631-ICSD
#?2014 by Fachinformationszentrum Karlsruhe, and the U.S. Secretary of 
#Commerce on behalf of the United States.  All rights reserved.
_database_code_ICSD                247631
_audit_creation_date               2013/08/01
_chemical_name_systematic          'Lithium Iron Disilicate'
_chemical_formula_structural       'Li Fe Si2 O6'
_chemical_formula_sum              'Fe1 Li1 O6 Si2'
_publ_section_title
;
Structural phase transition in Li Fe Si2 O6 from ab initio 
calculations
;
loop_
_citation_id
_citation_journal_abbrev
_citation_year
_citation_journal_volume
_citation_journal_issue
_citation_page_first
_citation_page_last
_citation_journal_id_ASTM
primary 'Journal of Physics: Condensed Matter' 2012 24 19 195401-1 195401-6 JCOMEL
_publ_author_name
;
Siegel, A.;Piekarz, P.;Parlinski, K.
;
_cell_length_a                     9.83
_cell_length_b                     8.88
_cell_length_c                     5.33
_cell_angle_alpha                  90
_cell_angle_beta                   110.8
_cell_angle_gamma                  90
_cell_volume                       434.93
_cell_formula_units_Z              4
_symmetry_space_group_name_H-M     'P 1 21/c 1'
_symmetry_Int_Tables_number        14
loop_
_symmetry_equiv_pos_site_id
_symmetry_equiv_pos_as_xyz
  1	'x, -y+.5, z+.5'
  2	'-x, -y, -z'
  3	'-x, y+.5, -z+.5'
  4	'x, y, z'
loop_
_atom_type_symbol
_atom_type_oxidation_number
Fe3+	3
Li1+	1
O2-	-2
Si4+	4
loop_
_atom_site_label
_atom_site_type_symbol
_atom_site_symmetry_multiplicity
_atom_site_Wyckoff_symbol
_atom_site_fract_x
_atom_site_fract_y
_atom_site_fract_z
_atom_site_occupancy
_atom_site_attached_hydrogens
Li1 Li1+ 4 e 0.2492 0.0086 0.2378 1. 0 
Fe1 Fe3+ 4 e 0.2497 0.6379 0.2366 1. 0 
Si1 Si4+ 4 e 0.0467 0.3367 0.2779 1. 0 
Si2 Si4+ 4 e 0.5472 0.8369 0.2519 1. 0 
O1 O2- 4 e 0.8672 0.3328 0.1595 1. 0 
O2 O2- 4 e 0.3674 0.8357 0.1330 1. 0 
O3 O2- 4 e 0.1178 0.5042 0.3154 1. 0 
O4 O2- 4 e 0.6241 0.0006 0.3540 1. 0 
O5 O2- 4 e 0.1065 0.2670 0.5836 1. 0 
O6 O2- 4 e 0.6030 0.7552 0.5148 1. 0 

#End of data_247631-ICSD


