data_165651-ICSD
#?2014 by Fachinformationszentrum Karlsruhe, and the U.S. Secretary of 
#Commerce on behalf of the United States.  All rights reserved.
_database_code_ICSD                165651
_audit_creation_date               2010/02/01
_chemical_name_systematic          'Magnesium Bis(tetrahydridoborate)'
_chemical_formula_structural       'Mg (B H4)2'
_chemical_formula_sum              'H8 B2 Mg1'
_publ_section_title
;
A new phase in the decomposition of Mg (B H4)2: first-principles 
simulated annealing
;
loop_
_citation_id
_citation_journal_abbrev
_citation_year
_citation_journal_volume
_citation_page_first
_citation_page_last
_citation_journal_id_ASTM
primary 'Journal of Materials Chemistry' 2009 19 7081 7087 JMACEP
2 'Physical Review Letters' 2008 100 135501-1 135501-4 PRLTAO
_publ_author_name
;
van Setten, M.J.;Lohstroh, W.;Fichtner, M.
;
_cell_length_a                     8.18
_cell_length_b                     8.18
_cell_length_c                     9.965
_cell_angle_alpha                  90.
_cell_angle_beta                   90.
_cell_angle_gamma                  90.
_cell_volume                       666.78
_cell_formula_units_Z              4
_symmetry_space_group_name_H-M     'I -4 m 2'
_symmetry_Int_Tables_number        119
loop_
_symmetry_equiv_pos_site_id
_symmetry_equiv_pos_as_xyz
  1	'y, x, -z'
  2	'-y, -x, -z'
  3	'y, -x, -z'
  4	'-y, x, -z'
  5	'x, -y, z'
  6	'-x, y, z'
  7	'-x, -y, z'
  8	'x, y, z'
  9	'y+.5, x+.5, -z+.5'
 10	'-y+.5, -x+.5, -z+.5'
 11	'y+.5, -x+.5, -z+.5'
 12	'-y+.5, x+.5, -z+.5'
 13	'x+.5, -y+.5, z+.5'
 14	'-x+.5, y+.5, z+.5'
 15	'-x+.5, -y+.5, z+.5'
 16	'x+.5, y+.5, z+.5'
loop_
_atom_type_symbol
_atom_type_oxidation_number
B3+	3
H1-	-1
Mg2+	2
loop_
_atom_site_label
_atom_site_type_symbol
_atom_site_symmetry_multiplicity
_atom_site_Wyckoff_symbol
_atom_site_fract_x
_atom_site_fract_y
_atom_site_fract_z
_atom_site_occupancy
_atom_site_attached_hydrogens
Mg1 Mg2+ 2 c 0 0.5 0.250 1. 0 
Mg2 Mg2+ 2 a 0 0 0 1. 0 
B1 B3+ 8 i 0.7307 0.5 0.3494 1. 0 
H1 H1- 8 i 0.2484 0 0.7276 1. 0 
H2 H1- 8 i 0.1426 0.5 0.4157 1. 0 
H3 H1- 16 j 0.1584 0.1265 0.8767 1. 0 

#End of data_165651-ICSD


