data_154673-ICSD
#?2014 by Fachinformationszentrum Karlsruhe, and the U.S. Secretary of 
#Commerce on behalf of the United States.  All rights reserved.
_database_code_ICSD                154673
_audit_creation_date               2007/04/01
_chemical_name_systematic          'Trisodium Aluminium Hexahyride'
_chemical_formula_structural       'Na3 (Al H6)'
_chemical_formula_sum              'H6 Al1 Na3'
_publ_section_title
;
Ab-initio calculation of titanium solubility in Na Al H4 and Na3 Al 
H6
;
loop_
_citation_id
_citation_journal_abbrev
_citation_year
_citation_journal_volume
_citation_page_first
_citation_page_last
_citation_journal_id_ASTM
primary 'Journal of Alloys and Compounds' 2006 416 245 249 JALCEU
_publ_author_name
;
Lee Eung-Kyu;Cho Young Whan;Yoon Jong Kyu
;
_cell_length_a                     5.322
_cell_length_b                     5.516
_cell_length_c                     7.679
_cell_angle_alpha                  90.
_cell_angle_beta                   90.117
_cell_angle_gamma                  90.
_cell_volume                       225.43
_cell_formula_units_Z              2
_symmetry_space_group_name_H-M     'P 1 21/n 1'
_symmetry_Int_Tables_number        14
loop_
_symmetry_equiv_pos_site_id
_symmetry_equiv_pos_as_xyz
  1	'-x+.5, y+.5, -z+.5'
  2	'-x, -y, -z'
  3	'x+.5, -y+.5, z+.5'
  4	'x, y, z'
loop_
_atom_type_symbol
_atom_type_oxidation_number
Al3+	3
H1-	-1
Na1+	1
loop_
_atom_site_label
_atom_site_type_symbol
_atom_site_symmetry_multiplicity
_atom_site_Wyckoff_symbol
_atom_site_fract_x
_atom_site_fract_y
_atom_site_fract_z
_atom_site_occupancy
_atom_site_attached_hydrogens
Na1 Na1+ 2 b 0 0 0.5 1. 0 
Na2 Na1+ 4 e -0.011 0.453 0.254 1. 0 
Al1 Al3+ 2 a 0 0 0 1. 0 
H1 H1- 4 e 0.100 0.048 0.217 1. 0 
H2 H1- 4 e 0.227 0.330 0.544 1. 0 
H3 H1- 4 e 0.161 0.268 0.936 1. 0 

#End of data_154673-ICSD


