data_187574-ICSD
#?2014 by Fachinformationszentrum Karlsruhe, and the U.S. Secretary of 
#Commerce on behalf of the United States.  All rights reserved.
_database_code_ICSD                187574
_audit_creation_date               2013/08/01
_chemical_name_systematic
;
Sodium Potassium Aluminosilicate Hydroxide (2/2/12/40/8)
;
_chemical_formula_structural       'Na2 K2 (Al12 Si12 O40 (O H)8)'
_chemical_formula_sum              'H8 Al12 K2 Na2 O48 Si12'
_chemical_name_mineral             Muscovite-paragonite
_publ_section_title
;
Computational study of the elastic behavior of the 2M1 muscovite-
paragonite series
;
loop_
_citation_id
_citation_journal_abbrev
_citation_year
_citation_journal_volume
_citation_journal_issue
_citation_page_first
_citation_page_last
_citation_journal_id_ASTM
primary 'American Mineralogist' 2013 98 4 651 664 AMMIAY
_publ_author_name
;
Hernandez-Haro, N.;Ortega-Castro, J.;Perez Del Valle, C.;Munoz-
Santiburcio, D.;Sainz-Diaz, C.I.;Hernandez-Laguna, A.
;
_cell_length_a                     10.32689
_cell_length_b                     8.97045
_cell_length_c                     19.65062
_cell_angle_alpha                  89.93214
_cell_angle_beta                   95.26342
_cell_angle_gamma                  90.00450
_cell_volume                       1812.69
_cell_formula_units_Z              2
_symmetry_space_group_name_H-M     'P 1'
_symmetry_Int_Tables_number        1
loop_
_symmetry_equiv_pos_site_id
_symmetry_equiv_pos_as_xyz
  1	'x, y, z'
loop_
_atom_type_symbol
_atom_type_oxidation_number
Al3+	3
H1+	1
K1+	1
Na1+	1
O2-	-2
Si4+	4
loop_
_atom_site_label
_atom_site_type_symbol
_atom_site_symmetry_multiplicity
_atom_site_Wyckoff_symbol
_atom_site_fract_x
_atom_site_fract_y
_atom_site_fract_z
_atom_site_occupancy
_atom_site_attached_hydrogens
K1 K1+ 1 a 0.25169 0.39476 0.75009 1.0000 0 
Al1 Al3+ 1 a 0.12181 0.91569 0.50040 1.0000 0 
Si1 Si4+ 1 a 0.22530 0.07077 0.63841 1.0000 0 
Al2 Al3+ 1 a 0.22915 0.73993 0.63940 1.0000 0 
O1 O2- 1 a 0.22799 0.06060 0.55480 1.0000 0 
O2 O2- 1 a 0.18950 0.75113 0.55043 1.0000 0 
O3 O2- 1 a 0.22437 0.43510 0.55188 1.0000 0 
O4 O2- 1 a 0.19460 0.91569 0.67577 1.0000 0 
O5 O2- 1 a 0.12341 0.20108 0.66126 1.0000 0 
O6 O2- 1 a 0.37085 0.13095 0.67170 1.0000 0 
H1 H1+ 1 a 0.17686 0.34181 0.55464 1.0000 0 
Al3 Al3+ 1 a 0.37691 0.91639 -0.00083 1.0000 0 
Si2 Si4+ 1 a 0.27117 0.07219 -0.13840 1.0000 0 
Al4 Al3+ 1 a 0.26784 0.74070 -0.13949 1.0000 0 
O7 O2- 1 a 0.27149 0.06391 -0.05461 1.0000 0 
O8 O2- 1 a 0.30773 0.75153 -0.05046 1.0000 0 
O9 O2- 1 a 0.27566 0.43566 -0.05216 1.0000 0 
O10 O2- 1 a 0.29764 0.91661 -0.17488 1.0000 0 
O11 O2- 1 a 0.37755 0.19738 -0.16232 1.0000 0 
O12 O2- 1 a 0.12697 0.13301 -0.17279 1.0000 0 
H2 H1+ 1 a 0.32315 0.34203 -0.05364 1.0000 0 
Na1 Na1+ 1 a 0.25025 0.57781 0.24912 1.0000 0 
Al5 Al3+ 1 a 0.37471 0.08590 0.49857 1.0000 0 
Si3 Si4+ 1 a 0.26918 0.93039 0.36085 1.0000 0 
Al6 Al3+ 1 a 0.26543 0.26366 0.36027 1.0000 0 
O13 O2- 1 a 0.26928 0.93903 0.44468 1.0000 0 
O14 O2- 1 a 0.30649 0.25124 0.44901 1.0000 0 
O15 O2- 1 a 0.26982 0.56669 0.44805 1.0000 0 
O16 O2- 1 a 0.29573 0.08732 0.32480 1.0000 0 
O17 O2- 1 a 0.37227 0.80231 0.33609 1.0000 0 
O18 O2- 1 a 0.12411 0.87156 0.32752 1.0000 0 
H3 H1+ 1 a 0.31724 0.66002 0.44525 1.0000 0 
Al7 Al3+ 1 a 0.12493 0.08798 0.00123 1.0000 0 
Si4 Si4+ 1 a 0.23037 0.93087 0.13893 1.0000 0 
Al8 Al3+ 1 a 0.23422 0.26416 0.13944 1.0000 0 
O19 O2- 1 a 0.23011 0.94017 0.05513 1.0000 0 
O20 O2- 1 a 0.19309 0.25265 0.05071 1.0000 0 
O21 O2- 1 a 0.22952 0.56717 0.05179 1.0000 0 
O22 O2- 1 a 0.20390 0.08766 0.17496 1.0000 0 
O23 O2- 1 a 0.12739 0.80260 0.16380 1.0000 0 
O24 O2- 1 a 0.37545 0.87165 0.17218 1.0000 0 
H4 H1+ 1 a 0.18230 0.66074 0.05416 1.0000 0 
Na2 Na1+ 1 a 0.00145 0.87816 0.74848 1.0000 0 
Al9 Al3+ 1 a 0.37039 0.41776 0.49932 1.0000 0 
Si5 Si4+ 1 a 0.48959 0.57009 0.63952 1.0000 0 
Si6 Si4+ 1 a 0.47348 0.24363 0.63734 1.0000 0 
O25 O2- 1 a 0.47994 0.55475 0.55505 1.0000 0 
O26 O2- 1 a 0.44927 0.24962 0.55425 1.0000 0 
O27 O2- 1 a 0.47602 0.94295 0.55244 1.0000 0 
O28 O2- 1 a 0.44759 0.40679 0.67126 1.0000 0 
O29 O2- 1 a 0.39422 0.70229 0.66105 1.0000 0 
O30 O2- 1 a 0.13305 0.60530 0.67508 1.0000 0 
H5 H1+ 1 a 0.43377 0.85213 0.56629 1.0000 0 
Al10 Al3+ 1 a 0.12919 0.41904 0.00001 1.0000 0 
Si7 Si4+ 1 a 0.00958 0.57230 -0.14081 1.0000 0 
Si8 Si4+ 1 a 0.02650 0.24696 -0.13814 1.0000 0 
O31 O2- 1 a 0.02062 0.55724 -0.05621 1.0000 0 
O32 O2- 1 a 0.05091 0.25204 -0.05495 1.0000 0 
O33 O2- 1 a 0.02403 0.94564 -0.05256 1.0000 0 
O34 O2- 1 a 0.05443 0.41004 -0.17194 1.0000 0 
O35 O2- 1 a 0.10186 0.70720 -0.16403 1.0000 0 
O36 O2- 1 a 0.36714 0.60873 -0.17467 1.0000 0 
H6 H1+ 1 a 0.06558 0.85530 -0.06728 1.0000 0 
K2 K1+ 1 a -0.00029 0.09345 0.24985 1.0000 0 
Al11 Al3+ 1 a 0.12409 0.58488 0.50051 1.0000 0 
Si9 Si4+ 1 a 0.00630 0.43269 0.35988 1.0000 0 
Si10 Si4+ 1 a 0.02419 0.75625 0.36140 1.0000 0 
O37 O2- 1 a 0.01429 0.44947 0.44431 1.0000 0 
O38 O2- 1 a 0.04719 0.75171 0.44463 1.0000 0 
O39 O2- 1 a 0.02033 0.05923 0.44695 1.0000 0 
O40 O2- 1 a 0.05359 0.59364 0.32700 1.0000 0 
O41 O2- 1 a 0.09979 0.29809 0.33930 1.0000 0 
O42 O2- 1 a 0.35920 0.40193 0.32364 1.0000 0 
H7 H1+ 1 a 0.06129 0.14914 0.43114 1.0000 0 
Al12 Al3+ 1 a 0.37522 0.58539 -0.00053 1.0000 0 
Si11 Si4+ 1 a 0.49350 0.43282 0.14015 1.0000 0 
Si12 Si4+ 1 a 0.47528 0.75658 0.13821 1.0000 0 
O43 O2- 1 a 0.48546 0.44971 0.05578 1.0000 0 
O44 O2- 1 a 0.45177 0.75215 0.05498 1.0000 0 
O45 O2- 1 a 0.47941 0.05900 0.05272 1.0000 0 
O46 O2- 1 a 0.44616 0.59386 0.17282 1.0000 0 
O47 O2- 1 a 0.39974 0.29849 0.16085 1.0000 0 
O48 O2- 1 a 0.14024 0.40240 0.17575 1.0000 0 
H8 H1+ 1 a 0.43875 0.14901 0.06853 1.0000 0 
Na3 Na1+ 1 a 0.74785 0.42831 0.75112 1.0000 0 
Al13 Al3+ 1 a 0.62247 0.91553 0.50078 1.0000 0 
Si13 Si4+ 1 a 0.72857 0.07010 0.63915 1.0000 0 
Al14 Al3+ 1 a 0.73000 0.73955 0.63955 1.0000 0 
O49 O2- 1 a 0.72800 0.06158 0.55515 1.0000 0 
O50 O2- 1 a 0.69007 0.75023 0.55062 1.0000 0 
O51 O2- 1 a 0.72359 0.43530 0.55151 1.0000 0 
O52 O2- 1 a 0.69799 0.91449 0.67496 1.0000 0 
O53 O2- 1 a 0.62505 0.19819 0.66319 1.0000 0 
O54 O2- 1 a 0.87431 0.12638 0.67291 1.0000 0 
H9 H1+ 1 a 0.67649 0.34173 0.55416 1.0000 0 
Al15 Al3+ 1 a 0.87802 0.91703 -0.00100 1.0000 0 
Si14 Si4+ 1 a 0.77452 0.07228 -0.13985 1.0000 0 
Al16 Al3+ 1 a 0.77217 0.74264 -0.14016 1.0000 0 
O55 O2- 1 a 0.77194 0.06107 -0.05603 1.0000 0 
O56 O2- 1 a 0.81189 0.75244 -0.05125 1.0000 0 
O57 O2- 1 a 0.77598 0.43704 -0.05192 1.0000 0 
O58 O2- 1 a 0.80856 0.91757 -0.17659 1.0000 0 
O59 O2- 1 a 0.87389 0.20520 -0.16298 1.0000 0 
O60 O2- 1 a 0.62817 0.12959 -0.17267 1.0000 0 
H10 H1+ 1 a 0.82336 0.34394 -0.05539 1.0000 0 
Na4 Na1+ 1 a 0.74948 0.57752 0.25039 1.0000 0 
Al17 Al3+ 1 a 0.87427 0.08690 0.49892 1.0000 0 
Si15 Si4+ 1 a 0.76935 0.93047 0.36107 1.0000 0 
Al18 Al3+ 1 a 0.76536 0.26369 0.36027 1.0000 0 
O61 O2- 1 a 0.76946 0.93922 0.44491 1.0000 0 
O62 O2- 1 a 0.80602 0.25163 0.44901 1.0000 0 
O63 O2- 1 a 0.77032 0.56724 0.44789 1.0000 0 
O64 O2- 1 a 0.79593 0.08732 0.32493 1.0000 0 
O65 O2- 1 a 0.87219 0.80224 0.33613 1.0000 0 
O66 O2- 1 a 0.62434 0.87173 0.32758 1.0000 0 
H11 H1+ 1 a 0.81798 0.66058 0.44567 1.0000 0 
Al19 Al3+ 1 a 0.62536 0.08688 0.00063 1.0000 0 
Si16 Si4+ 1 a 0.73036 0.93073 0.13852 1.0000 0 
Al20 Al3+ 1 a 0.73435 0.26388 0.13932 1.0000 0 
O67 O2- 1 a 0.73047 0.93972 0.05464 1.0000 0 
O68 O2- 1 a 0.69379 0.25174 0.05055 1.0000 0 
O69 O2- 1 a 0.72988 0.56805 0.05166 1.0000 0 
O70 O2- 1 a 0.70371 0.08736 0.17466 1.0000 0 
O71 O2- 1 a 0.62737 0.80235 0.16328 1.0000 0 
O72 O2- 1 a 0.87533 0.87194 0.17207 1.0000 0 
H12 H1+ 1 a 0.68195 0.66100 0.05441 1.0000 0 
K3 K1+ 1 a 0.49766 0.90709 0.75008 1.0000 0 
Al21 Al3+ 1 a 0.86978 0.41804 0.49966 1.0000 0 
Si17 Si4+ 1 a 0.98748 0.57145 0.64044 1.0000 0 
Si18 Si4+ 1 a 0.97048 0.24528 0.63837 1.0000 0 
O73 O2- 1 a 0.97828 0.55510 0.55598 1.0000 0 
O74 O2- 1 a 0.94607 0.25156 0.55519 1.0000 0 
O75 O2- 1 a 0.97647 0.94448 0.55242 1.0000 0 
O76 O2- 1 a 0.94173 0.40854 0.67289 1.0000 0 
O77 O2- 1 a 0.89571 0.70688 0.66347 1.0000 0 
O78 O2- 1 a 0.63599 0.60159 0.67561 1.0000 0 
H13 H1+ 1 a 0.93531 0.85500 0.56843 1.0000 0 
Al22 Al3+ 1 a 0.63009 0.41875 0.00032 1.0000 0 
Si19 Si4+ 1 a 0.51248 0.57309 -0.13979 1.0000 0 
Si20 Si4+ 1 a 0.52920 0.24566 -0.13824 1.0000 0 
O79 O2- 1 a 0.52062 0.55539 -0.05547 1.0000 0 
O80 O2- 1 a 0.55294 0.25185 -0.05515 1.0000 0 
O81 O2- 1 a 0.52271 0.94448 -0.05293 1.0000 0 
O82 O2- 1 a 0.55571 0.40957 -0.17283 1.0000 0 
O83 O2- 1 a 0.60740 0.70588 -0.16120 1.0000 0 
O84 O2- 1 a 0.86291 0.60221 -0.17656 1.0000 0 
H14 H1+ 1 a 0.56438 0.85457 -0.06814 1.0000 0 
K4 K1+ 1 a 0.49992 0.09314 0.24987 1.0000 0 
Al23 Al3+ 1 a 0.62432 0.58477 0.49991 1.0000 0 
Si21 Si4+ 1 a 0.50617 0.43270 0.35921 1.0000 0 
Si22 Si4+ 1 a 0.52432 0.75647 0.36137 1.0000 0 
O85 O2- 1 a 0.51434 0.44931 0.44359 1.0000 0 
O86 O2- 1 a 0.54766 0.75167 0.44459 1.0000 0 
O87 O2- 1 a 0.52081 0.05823 0.44674 1.0000 0 
O88 O2- 1 a 0.55340 0.59404 0.32663 1.0000 0 
O89 O2- 1 a 0.60005 0.29871 0.33843 1.0000 0 
O90 O2- 1 a 0.85951 0.40211 0.32407 1.0000 0 
H15 H1+ 1 a 0.56205 0.14871 0.43175 1.0000 0 
Al24 Al3+ 1 a 0.87575 0.58642 -0.00060 1.0000 0 
Si23 Si4+ 1 a 0.99340 0.43324 0.14000 1.0000 0 
Si24 Si4+ 1 a 0.97540 0.75682 0.13835 1.0000 0 
O91 O2- 1 a 0.98537 0.45070 0.05559 1.0000 0 
O92 O2- 1 a 0.95250 0.75283 0.05512 1.0000 0 
O93 O2- 1 a 0.97876 0.06008 0.05294 1.0000 0 
O94 O2- 1 a 0.94609 0.59406 0.17282 1.0000 0 
O95 O2- 1 a 0.89983 0.29863 0.16058 1.0000 0 
O96 O2- 1 a 0.64044 0.40206 0.17575 1.0000 0 
H16 H1+ 1 a 0.93741 0.15023 0.06813 1.0000 0 

#End of data_187574-ICSD


