data_85742-ICSD
#?2014 by Fachinformationszentrum Karlsruhe, and the U.S. Secretary of 
#Commerce on behalf of the United States.  All rights reserved.
_database_code_ICSD                85742
_audit_creation_date               1999/11/30
_audit_update_record               2008/02/01
_chemical_name_systematic          'Dialuminium Silicate Oxide'
_chemical_formula_structural       'Al2 (Si O4) O'
_chemical_formula_sum              'Al2 O5 Si1'
_chemical_name_mineral             Kyanite
_publ_section_title
;
Computer simulation of the structure, properties and stability of the 
Al2 Si O5 polymorphs: I. Ionic model
;
loop_
_citation_id
_citation_journal_abbrev
_citation_year
_citation_journal_volume
_citation_journal_issue
_citation_page_first
_citation_page_last
_citation_journal_id_ASTM
primary Geokhimiya 1998 1998 5 456 474 GEOKAQ
2 'Geochemistry International' 1998 36- 397 414 GCINAP
_publ_author_name
;
Urusov, V.S.;Oganov, A.P.;Eremin, N.N.
;
_cell_length_a                     6.9425
_cell_length_b                     7.9326
_cell_length_c                     5.7052
_cell_angle_alpha                  90.89
_cell_angle_beta                   101.58
_cell_angle_gamma                  105.99
_cell_volume                       295.05
_cell_formula_units_Z              4
_symmetry_space_group_name_H-M     'P -1'
_symmetry_Int_Tables_number        2
loop_
_symmetry_equiv_pos_site_id
_symmetry_equiv_pos_as_xyz
  1	'-x, -y, -z'
  2	'x, y, z'
loop_
_atom_type_symbol
_atom_type_oxidation_number
Al3+	3
O2-	-2
Si4+	4
loop_
_atom_site_label
_atom_site_type_symbol
_atom_site_symmetry_multiplicity
_atom_site_Wyckoff_symbol
_atom_site_fract_x
_atom_site_fract_y
_atom_site_fract_z
_atom_site_occupancy
_atom_site_attached_hydrogens
Al1 Al3+ 2 i 0.3463 0.7028 0.4634 1. 0 
Al2 Al3+ 2 i 0.2875 0.6959 0.9481 1. 0 
Al3 Al3+ 2 i 0.0961 0.3757 0.6278 1. 0 
Al4 Al3+ 2 i 0.1278 0.9318 0.1815 1. 0 
Si1 Si4+ 2 i 0.2959 0.0562 0.72 1. 0 
Si2 Si4+ 2 i 0.2808 0.3359 0.1702 1. 0 
O1 O2- 2 i 0.1019 0.1479 0.1134 1. 0 
O2 O2- 2 i 0.1351 0.6991 0.197 1. 0 
O3 O2- 2 i 0.2641 0.4568 0.9447 1. 0 
O4 O2- 2 i 0.2832 0.9314 0.9431 1. 0 
O5 O2- 2 i 0.1337 0.6232 0.6318 1. 0 
O6 O2- 2 i 0.2765 0.4421 0.4144 1. 0 
O7 O2- 2 i 0.2948 0.9435 0.4818 1. 0 
O8 O2- 2 i 0.4953 0.2777 0.2314 1. 0 
O9 O2- 2 i 0.1057 0.1465 0.6744 1. 0 
O10 O2- 2 i 0.5003 0.2278 0.7656 1. 0 

#End of data_85742-ICSD


