data_168224-ICSD
#?2014 by Fachinformationszentrum Karlsruhe, and the U.S. Secretary of 
#Commerce on behalf of the United States.  All rights reserved.
_database_code_ICSD                168224
_audit_creation_date               2011/02/01
_chemical_name_systematic
;
Calcium Bis(tetrahydridoborate) - Beta,p4-
;
_chemical_formula_structural       'Ca (B H4)2'
_chemical_formula_sum              'H8 B2 Ca1'
_publ_section_title
;
Calcium borohydride for hydrogen storage: a computational study of Ca 
(B H4)2 crystal structures and the Ca B2 Hx intermediate
;
loop_
_citation_id
_citation_journal_abbrev
_citation_year
_citation_journal_volume
_citation_page_first
_citation_page_last
_citation_journal_id_ASTM
primary 'Journal of Physical Chemistry C' 2010 114 9503 9509 JPCCCK
_publ_author_name                  'Frankcombe, T.J.'
_cell_length_a                     6.9471
_cell_length_b                     6.9471
_cell_length_c                     4.3461
_cell_angle_alpha                  90.
_cell_angle_beta                   90.
_cell_angle_gamma                  90.
_cell_volume                       209.75
_cell_formula_units_Z              2
_symmetry_space_group_name_H-M     'P -4'
_symmetry_Int_Tables_number        81
loop_
_symmetry_equiv_pos_site_id
_symmetry_equiv_pos_as_xyz
  1	'-y, x, -z'
  2	'y, -x, -z'
  3	'-x, -y, z'
  4	'x, y, z'
loop_
_atom_type_symbol
_atom_type_oxidation_number
B3+	3
Ca2+	2
H1-	-1
loop_
_atom_site_label
_atom_site_type_symbol
_atom_site_symmetry_multiplicity
_atom_site_Wyckoff_symbol
_atom_site_fract_x
_atom_site_fract_y
_atom_site_fract_z
_atom_site_occupancy
_atom_site_attached_hydrogens
Ca1 Ca2+ 2 g 0 0.5 0.75476 1. 0 
B1 B3+ 4 h 0.79795 0.68423 0.25495 1. 0 
H1 H1- 4 h 0.62364 0.69502 0.22663 1. 0 
H2 H1- 4 h 0.85201 0.76216 0.49223 1. 0 
H3 H1- 4 h 0.82845 0.51038 0.26006 1. 0 
H4 H1- 4 h 0.88055 0.76248 0.03994 1. 0 

#End of data_168224-ICSD


