data_245985-ICSD
#?2014 by Fachinformationszentrum Karlsruhe, and the U.S. Secretary of 
#Commerce on behalf of the United States.  All rights reserved.
_database_code_ICSD                245985
_audit_creation_date               2009/02/01
_chemical_name_systematic          'Tricesium Dilithium Pentaiodide'
_chemical_formula_structural       'Cs3 Li2 I5'
_chemical_formula_sum              'Cs3 I5 Li2'
_publ_section_title
;
Ab initio prediction of the low-temperature phase diagrams in the 
systems CsX-LiX (X = F, Cl, Br, I)
;
loop_
_citation_id
_citation_journal_abbrev
_citation_year
_citation_journal_volume
_citation_journal_issue
_citation_page_first
_citation_page_last
_citation_journal_id_ASTM
primary 'Solid State Sciences' 2008 10 6 804 813 SSSCFJ
_publ_author_name
;
Pentin, I.V.;Schoen, J.C.;Jansen, M.
;
_cell_length_a                     30.72
_cell_length_b                     5.19
_cell_length_c                     13.44
_cell_angle_alpha                  90.
_cell_angle_beta                   100.93
_cell_angle_gamma                  90.
_cell_volume                       2103.96
_cell_formula_units_Z              4
_symmetry_space_group_name_H-M     'C 1 2/m 1'
_symmetry_Int_Tables_number        12
loop_
_symmetry_equiv_pos_site_id
_symmetry_equiv_pos_as_xyz
  1	'-x, y, -z'
  2	'-x, -y, -z'
  3	'x, -y, z'
  4	'x, y, z'
  5	'-x+.5, y+.5, -z'
  6	'-x+.5, -y+.5, -z'
  7	'x+.5, -y+.5, z'
  8	'x+.5, y+.5, z'
loop_
_atom_type_symbol
_atom_type_oxidation_number
Cs1+	1
I1-	-1
Li1+	1
loop_
_atom_site_label
_atom_site_type_symbol
_atom_site_symmetry_multiplicity
_atom_site_Wyckoff_symbol
_atom_site_fract_x
_atom_site_fract_y
_atom_site_fract_z
_atom_site_occupancy
_atom_site_attached_hydrogens
Cs1 Cs1+ 4 i 0.94142 0 0.34962 1. 0 
Cs2 Cs1+ 4 i 0.74436 0 0.73188 1. 0 
Cs3 Cs1+ 4 i 0.94853 0 0.85296 1. 0 
Li1 Li1+ 4 i 0.65445 0 0.97130 1. 0 
Li2 Li1+ 4 i 0.34896 0 0.58272 1. 0 
I1 I1- 4 i 0.55205 0 0.40296 1. 0 
I2 I1- 4 i 0.81303 0 0.10596 1. 0 
I3 I1- 4 i 0.44586 0 0.10789 1. 0 
I4 I1- 4 i 0.65761 0 0.19669 1. 0 
I5 I1- 4 i 0.81547 0 0.47879 1. 0 

#End of data_245985-ICSD


