data_83791-ICSD
#?2014 by Fachinformationszentrum Karlsruhe, and the U.S. Secretary of 
#Commerce on behalf of the United States.  All rights reserved.
_database_code_ICSD                83791
_audit_creation_date               1999/01/19
_chemical_name_systematic          'Magnesium Silicate'
_chemical_formula_structural       'Mg2 (Si O4)'
_chemical_formula_sum              'Mg2 O4 Si1'
_chemical_name_mineral             Olivine
_publ_section_title
;
Structure and dynamics of protonated Mg2 Si O4 : an ab-initio 
molecular dynamics study
;
loop_
_citation_id
_citation_journal_abbrev
_citation_year
_citation_journal_volume
_citation_page_first
_citation_page_last
_citation_journal_id_ASTM
primary 'American Mineralogist' 1997 82 913 922 AMMIAY
_publ_author_name
;
Haiber, M.;Ballone, P.;Parrinello, M.
;
_cell_length_a                     9.52519
_cell_length_b                     5.68891
_cell_length_c                     4.59682
_cell_angle_alpha                  90.
_cell_angle_beta                   90.
_cell_angle_gamma                  90.
_cell_volume                       249.09
_cell_formula_units_Z              4
_symmetry_space_group_name_H-M     'P n m a'
_symmetry_Int_Tables_number        62
loop_
_symmetry_equiv_pos_site_id
_symmetry_equiv_pos_as_xyz
  1	'x+.5, y, -z+.5'
  2	'x, -y+.5, z'
  3	'-x+.5, y+.5, z+.5'
  4	'-x, -y, -z'
  5	'-x+.5, -y, z+.5'
  6	'-x, y+.5, -z'
  7	'x+.5, -y+.5, -z+.5'
  8	'x, y, z'
loop_
_atom_type_symbol
_atom_type_oxidation_number
Mg2+	2
O2-	-2
Si4+	4
loop_
_atom_site_label
_atom_site_type_symbol
_atom_site_symmetry_multiplicity
_atom_site_Wyckoff_symbol
_atom_site_fract_x
_atom_site_fract_y
_atom_site_fract_z
_atom_site_occupancy
_atom_site_attached_hydrogens
Mg1 Mg2+ 4 a 0 0 0 1. 0 
Mg2 Mg2+ 4 c 0.27412 0.25 0.99006 1. 0 
Si1 Si4+ 4 c 0.09489 0.25 0.42854 1. 0 
O1 O2- 4 c 0.09176 0.25 0.77209 1. 0 
O2 O2- 4 c 0.44122 0.25 0.22305 1. 0 
O3 O2- 8 d 0.16763 0.02772 0.27359 1. 0 

#End of data_83791-ICSD


