data_161824-ICSD
#?2014 by Fachinformationszentrum Karlsruhe, and the U.S. Secretary of 
#Commerce on behalf of the United States.  All rights reserved.
_database_code_ICSD                161824
_audit_creation_date               2009/02/01
_audit_update_record               2013/08/01
_chemical_name_systematic          'Calcium Dioxonitridotantalate'
_chemical_formula_structural       'Ca (Ta O2 N)'
_chemical_formula_sum              'Ca1 N1 O2 Ta1'
_publ_section_title
;
First principles and molecular-dynamics study of structure and 
bonding in perovskite-type oxynitrides A B O2 N (A= Ca, Sr, Ba; B= 
Ta, Nb)
;
loop_
_citation_id
_citation_journal_abbrev
_citation_year
_citation_journal_volume
_citation_journal_issue
_citation_page_first
_citation_page_last
_citation_journal_id_ASTM
primary 'Journal of Computational Chemistry' 2008 29 13 2260 2267 JCCHDD
_publ_author_name                  'Wolff, H.;Dronskowski, R.'
_cell_length_a                     7.8139
_cell_length_b                     5.5507
_cell_length_c                     5.6834
_cell_angle_alpha                  90.
_cell_angle_beta                   90.
_cell_angle_gamma                  90.
_cell_volume                       246.5
_cell_formula_units_Z              4
_symmetry_space_group_name_H-M     'P m c 21'
_symmetry_Int_Tables_number        26
loop_
_symmetry_equiv_pos_site_id
_symmetry_equiv_pos_as_xyz
  1	'x, -y, z+.5'
  2	'-x, -y, z+.5'
  3	'-x, y, z'
  4	'x, y, z'
loop_
_atom_type_symbol
_atom_type_oxidation_number
Ca2+	2
N3-	-3
O2-	-2
Ta5+	5
loop_
_atom_site_label
_atom_site_type_symbol
_atom_site_symmetry_multiplicity
_atom_site_Wyckoff_symbol
_atom_site_fract_x
_atom_site_fract_y
_atom_site_fract_z
_atom_site_occupancy
_atom_site_attached_hydrogens
Ca1 Ca2+ 2 a 0 0.2670 0.5406 1. 0 
Ca2 Ca2+ 2 b 0.5 0.7580 0.9490 1. 0 
Ta1 Ta5+ 4 c 0.7456 0.7651 0.4918 1. 0 
O1 O2- 2 a 0 0.8317 0.4784 1. 0 
O2 O2- 2 b 0.5 0.3518 0.0306 1. 0 
O3 O2- 4 c 0.7993 0.4594 0.2950 1. 0 
N1 N3- 4 c 0.7023 0.9624 0.2140 1. 0 

#End of data_161824-ICSD


