data_86341-ICSD
#?2014 by Fachinformationszentrum Karlsruhe, and the U.S. Secretary of 
#Commerce on behalf of the United States.  All rights reserved.
_database_code_ICSD                86341
_audit_creation_date               1999/11/30
_chemical_name_systematic          'Dialuminium Silicate Oxide'
_chemical_formula_structural       'Al2 (Si O4) O'
_chemical_formula_sum              'Al2 O5 Si1'
_chemical_name_mineral             Kyanite
_publ_section_title
;
Static lattice energy minimization and lattice dynamics calculations 
on aluminosilicate materials
;
loop_
_citation_id
_citation_journal_abbrev
_citation_year
_citation_journal_volume
_citation_page_first
_citation_page_last
_citation_journal_id_ASTM
primary 'American Mineralogist' 1991 76 313 331 AMMIAY
_publ_author_name                  'Winkler, B.;Dove, M.T.;Leslie, M.'
_cell_length_a                     6.976
_cell_length_b                     7.829
_cell_length_c                     5.589
_cell_angle_alpha                  90.55
_cell_angle_beta                   101.37
_cell_angle_gamma                  106.16
_cell_volume                       286.75
_cell_formula_units_Z              4
_symmetry_space_group_name_H-M     'P -1'
_symmetry_Int_Tables_number        2
loop_
_symmetry_equiv_pos_site_id
_symmetry_equiv_pos_as_xyz
  1	'-x, -y, -z'
  2	'x, y, z'
loop_
_atom_type_symbol
_atom_type_oxidation_number
Al3+	3
O2-	-2
Si4+	4
loop_
_atom_site_label
_atom_site_type_symbol
_atom_site_symmetry_multiplicity
_atom_site_Wyckoff_symbol
_atom_site_fract_x
_atom_site_fract_y
_atom_site_fract_z
_atom_site_occupancy
_atom_site_attached_hydrogens
Al1 Al3+ 2 i 0.3348 0.7061 0.4607 1. 0 
Al2 Al3+ 2 i 0.3033 0.7006 0.9518 1. 0 
Al3 Al3+ 2 i 0.1004 0.3825 0.6367 1. 0 
Al4 Al3+ 2 i 0.1174 0.923 0.1689 1. 0 
Si1 Si4+ 2 i 0.2947 0.0583 0.7091 1. 0 
Si2 Si4+ 2 i 0.2871 0.3365 0.1828 1. 0 
O1 O2- 2 i 0.0964 0.1482 0.1237 1. 0 
O2 O2- 2 i 0.1234 0.6845 0.1825 1. 0 
O3 O2- 2 i 0.2838 0.4584 0.9451 1. 0 
O4 O2- 2 i 0.2961 0.9375 0.9491 1. 0 
O5 O2- 2 i 0.1235 0.6325 0.6409 1. 0 
O6 O2- 2 i 0.2911 0.4476 0.4346 1. 0 
O7 O2- 2 i 0.3068 0.9495 0.4646 1. 0 
O8 O2- 2 i 0.4924 0.262 0.2376 1. 0 
O9 O2- 2 i 0.0967 0.1435 0.6563 1. 0 
O10 O2- 2 i 0.4937 0.2417 0.7585 1. 0 

#End of data_86341-ICSD


