data_246961-ICSD
#?2014 by Fachinformationszentrum Karlsruhe, and the U.S. Secretary of 
#Commerce on behalf of the United States.  All rights reserved.
_database_code_ICSD                246961
_audit_creation_date               2010/02/01
_chemical_name_systematic          'Dicalcium Tetrafluoride'
_chemical_formula_structural       'Ca2 F4'
_chemical_formula_sum              'Ca2 F4'
_publ_section_title
;
Electronic band structure of Ca U O4 from first principles
;
loop_
_citation_id
_citation_journal_abbrev
_citation_year
_citation_journal_volume
_citation_journal_issue
_citation_page_first
_citation_page_last
_citation_journal_id_ASTM
primary 'Journal of Solid State Chemistry' 2009 182 10 2678 2684 JSSCBI
_publ_author_name                  'Matar, S.F.;Demazeau, G.'
_cell_length_a                     6.418
_cell_length_b                     6.418
_cell_length_c                     6.418
_cell_angle_alpha                  34.433
_cell_angle_beta                   34.433
_cell_angle_gamma                  34.433
_cell_volume                       75.4
_cell_formula_units_Z              1
_symmetry_space_group_name_H-M     'R -3 m R'
_symmetry_Int_Tables_number        166
loop_
_symmetry_equiv_pos_site_id
_symmetry_equiv_pos_as_xyz
  1	'-z, -y, -x'
  2	'-z, -x, -y'
  3	'-x, -z, -y'
  4	'-y, -z, -x'
  5	'-y, -x, -z'
  6	'-x, -y, -z'
  7	'z, y, x'
  8	'z, x, y'
  9	'x, z, y'
 10	'y, z, x'
 11	'y, x, z'
 12	'x, y, z'
loop_
_atom_type_symbol
_atom_type_oxidation_number
Ca2+	2
F1-	-1
loop_
_atom_site_label
_atom_site_type_symbol
_atom_site_symmetry_multiplicity
_atom_site_Wyckoff_symbol
_atom_site_fract_x
_atom_site_fract_y
_atom_site_fract_z
_atom_site_occupancy
_atom_site_attached_hydrogens
Ca1 Ca2+ 1 a 0 0 0 1. 0 
Ca2 Ca2+ 1 b 0.5 0.5 0.5 1. 0 
F1 F1- 2 c 0.126 0.126 0.126 1. 0 
F2 F1- 2 c 0.374 0.374 0.374 1. 0 

#End of data_246961-ICSD


