data_187436-ICSD
#?2014 by Fachinformationszentrum Karlsruhe, and the U.S. Secretary of 
#Commerce on behalf of the United States.  All rights reserved.
_database_code_ICSD                187436
_audit_creation_date               2013/08/01
_chemical_name_systematic          'Magnesium Bis(tetrahydridoborate)'
_chemical_formula_structural       'Mg (B H4)2'
_chemical_formula_sum              'H8 B2 Mg1'
_publ_section_title
;
Ab initio crystal structure prediction by combining symmetry analysis 
representations and total energy calculations. An insight into the 
structure of Mg (B H4)2
;
loop_
_citation_id
_citation_journal_abbrev
_citation_year
_citation_journal_volume
_citation_journal_issue
_citation_page_first
_citation_page_last
_citation_journal_id_ASTM
primary 'Physical Chemistry Chemical Physics' 2013 15 5 1471 1480 PPCPFQ
_publ_author_name
;
Caputo, Riccarda;Kupczak, Arkadiusz;Sikora, Wieslawa;Tekin, Adem
;
_cell_length_a                     10.278
_cell_length_b                     11.361
_cell_length_c                     11.946
_cell_angle_alpha                  90.
_cell_angle_beta                   90.
_cell_angle_gamma                  90.
_cell_volume                       1394.91
_cell_formula_units_Z              8
_symmetry_space_group_name_H-M     'F 2 2 2'
_symmetry_Int_Tables_number        22
loop_
_symmetry_equiv_pos_site_id
_symmetry_equiv_pos_as_xyz
  1	'-x, y, -z'
  2	'x, -y, -z'
  3	'-x, -y, z'
  4	'x, y, z'
  5	'-x, y+.5, -z+.5'
  6	'-x+.5, y, -z+.5'
  7	'-x+.5, y+.5, -z'
  8	'x, -y+.5, -z+.5'
  9	'x+.5, -y, -z+.5'
 10	'x+.5, -y+.5, -z'
 11	'-x, -y+.5, z+.5'
 12	'-x+.5, -y, z+.5'
 13	'-x+.5, -y+.5, z'
 14	'x, y+.5, z+.5'
 15	'x+.5, y, z+.5'
 16	'x+.5, y+.5, z'
loop_
_atom_type_symbol
_atom_type_oxidation_number
B3+	3
H1-	-1
Mg2+	2
loop_
_atom_site_label
_atom_site_type_symbol
_atom_site_symmetry_multiplicity
_atom_site_Wyckoff_symbol
_atom_site_fract_x
_atom_site_fract_y
_atom_site_fract_z
_atom_site_occupancy
_atom_site_attached_hydrogens
Mg1 Mg2+ 4 c 0.250 0.250 0.250 1. 0 
Mg2 Mg2+ 4 a 0 0 0 1. 0 
B1 B3+ 16 k 0.1478 0.1129 0.1190 1. 0 
H1 H1- 16 k 0.1153 0.1479 0.0262 1. 0 
H2 H1- 16 k 0.0859 0.1708 0.1876 1. 0 
H3 H1- 16 k 0.1247 0.0093 0.1388 1. 0 
H4 H1- 16 k 0.2662 0.1234 0.1234 1. 0 

#End of data_187436-ICSD


