data_290136-ICSD
#?2014 by Fachinformationszentrum Karlsruhe, and the U.S. Secretary of 
#Commerce on behalf of the United States.  All rights reserved.
_database_code_ICSD                290136
_audit_creation_date               2013/08/01
_chemical_name_systematic
;
Magnesium Triborate Pentahydroxide Pentahydrate
;
_chemical_formula_structural       'Mg (B3 O3) (O H)5 (H2 O)5'
_chemical_formula_sum              'H15 B3 Mg1 O13'
_chemical_name_mineral             Inderite
_publ_section_title
;
Crystal structure refinements of borate dimorphs inderite and 
kurnakovite using 11B and 25Mg nuclear magnetic resonance and DFT 
calculations
;
loop_
_citation_id
_citation_journal_abbrev
_citation_year
_citation_journal_volume
_citation_journal_issue
_citation_page_first
_citation_page_last
_citation_journal_id_ASTM
primary 'American Mineralogist' 2012 97 11-12 1858 1865 AMMIAY
_publ_author_name
;
Bing Zhou;Michaelis, V.K.;Yuanming Pan;Yefeng Yao;Tait, K.T.;Hyde, 
B.C.;Wren, J.E.C.;Sherriff, B.L.;Kroeker, S.
;
_cell_length_a                     6.822100
_cell_length_b                     13.114500
_cell_length_c                     12.035000
_cell_angle_alpha                  90.000000
_cell_angle_beta                   104.552000
_cell_angle_gamma                  90.000000
_cell_volume                       1042.21
_cell_formula_units_Z              4
_symmetry_space_group_name_H-M     'P 1 21/c 1'
_symmetry_Int_Tables_number        14
loop_
_symmetry_equiv_pos_site_id
_symmetry_equiv_pos_as_xyz
  1	'x, -y+.5, z+.5'
  2	'-x, -y, -z'
  3	'-x, y+.5, -z+.5'
  4	'x, y, z'
loop_
_atom_type_symbol
_atom_type_oxidation_number
B3+	3
H1+	1
Mg2+	2
O2-	-2
loop_
_atom_site_label
_atom_site_type_symbol
_atom_site_symmetry_multiplicity
_atom_site_Wyckoff_symbol
_atom_site_fract_x
_atom_site_fract_y
_atom_site_fract_z
_atom_site_occupancy
_atom_site_attached_hydrogens
Mg1 Mg2+ 4 e 0.25580365 0.21608648 0.11712404 1. 0 
O1 O2- 4 e 0.68893468 0.14501021 0.43403389 1. 0 
O2 O2- 4 e 0.49875540 0.20999021 0.25488071 1. 0 
O3 O2- 4 e 0.76656933 0.08600564 0.25798999 1. 0 
O4 O2- 4 e 0.45440052 0.03556751 0.30381358 1. 0 
O5 O2- 4 e 0.27859208 0.89011792 0.20256454 1. 0 
O6 O2- 4 e 0.54466539 0.96387034 0.13888765 1. 0 
O7 O2- 4 e 0.86289717 0.99228794 0.10921051 1. 0 
O8 O2- 4 e 0.23439100 0.05826607 0.11601638 1. 0 
O9 O2- 4 e 0.42417195 0.20597573 0.99208514 1. 0 
O10 O2- 4 e 0.98823220 0.21768646 0.98618513 1. 0 
O11 O2- 4 e 0.27634631 0.37165748 0.10488207 1. 0 
O12 O2- 4 e 0.07031892 0.23141381 0.23703182 1. 0 
O13 O2- 4 e 0.15582599 0.02164417 0.41011097 1. 0 
B1 B3+ 4 e 0.59932097 0.11861525 0.31358958 1. 0 
B2 B3+ 4 e 0.37940887 0.98749520 0.19272794 1. 0 
B3 B3+ 4 e 0.72300452 0.01671510 0.17058003 1. 0 
H1 H1+ 4 e 0.73931279 0.08606026 0.48383095 1. 0 
H2 H1+ 4 e 0.58312803 0.27269404 0.26979279 1. 0 
H3 H1+ 4 e 0.19204902 0.89439587 0.25561881 1. 0 
H4 H1+ 4 e 0.99658556 0.02817391 0.12503284 1. 0 
H5 H1+ 4 e 0.21116187 0.03475412 0.03457256 1. 0 
H6 H1+ 4 e 0.51336316 0.26056801 0.97580036 1. 0 
H7 H1+ 4 e 0.44556445 0.14521346 0.94693795 1. 0 
H8 H1+ 4 e 0.87986016 0.27157851 0.97154346 1. 0 
H9 H1+ 4 e 0.92893617 0.16396575 0.93052172 1. 0 
H10 H1+ 4 e 0.38762348 0.41823024 0.14178109 1. 0 
H11 H1+ 4 e 0.21873420 0.40450518 0.02849773 1. 0 
H12 H1+ 4 e 0.95664510 0.18560109 0.24103575 1. 0 
H13 H1+ 4 e 0.14116039 0.24505296 0.31712802 1. 0 
H14 H1+ 4 e 0.02145424 0.03840586 0.36003252 1. 0 
H15 H1+ 4 e 0.26202791 0.03740241 0.36726420 1. 0 

#End of data_290136-ICSD


