data_182734-ICSD
#?2014 by Fachinformationszentrum Karlsruhe, and the U.S. Secretary of 
#Commerce on behalf of the United States.  All rights reserved.
_database_code_ICSD                182734
_audit_creation_date               2012/02/01
_chemical_name_systematic
;
Sodium Tetrahydridoborate - 3-1 Model
;
_chemical_formula_structural       'Na (B H4)'
_chemical_formula_sum              'H4 B1 Na1'
_publ_section_title
;
First-principles prediction of phase stability and crystla structures 
in Li-Zn and Na-Zn mixed-metal borohydrides
;
loop_
_citation_id
_citation_journal_abbrev
_citation_year
_citation_journal_volume
_citation_page_first
_citation_page_last
_citation_journal_id_ASTM
primary 'Physical Review, Serie 3. B - Condensed Matter (18,1978-)'
 2011 83 144111-1 144111-8 PRBMDO
_publ_author_name                  'Aidhy D.S.;Wolverton, C.'
_cell_length_a                     6.044
_cell_length_b                     6.044
_cell_length_c                     6.044
_cell_angle_alpha                  90.
_cell_angle_beta                   90.
_cell_angle_gamma                  90.
_cell_volume                       220.79
_cell_formula_units_Z              4
_symmetry_space_group_name_H-M     'P -4 3 m'
_symmetry_Int_Tables_number        215
loop_
_symmetry_equiv_pos_site_id
_symmetry_equiv_pos_as_xyz
  1	'-z, -y, x'
  2	'-y, -x, z'
  3	'-x, -z, y'
  4	'-z, -x, y'
  5	'-y, -z, x'
  6	'-x, -y, z'
  7	'-z, y, -x'
  8	'-y, x, -z'
  9	'-x, z, -y'
 10	'-z, x, -y'
 11	'-y, z, -x'
 12	'-x, y, -z'
 13	'z, -y, -x'
 14	'y, -x, -z'
 15	'x, -z, -y'
 16	'z, -x, -y'
 17	'y, -z, -x'
 18	'x, -y, -z'
 19	'z, y, x'
 20	'y, x, z'
 21	'x, z, y'
 22	'z, x, y'
 23	'y, z, x'
 24	'x, y, z'
loop_
_atom_type_symbol
_atom_type_oxidation_number
B3+	3
H1-	-1
Na1+	1
loop_
_atom_site_label
_atom_site_type_symbol
_atom_site_symmetry_multiplicity
_atom_site_Wyckoff_symbol
_atom_site_fract_x
_atom_site_fract_y
_atom_site_fract_z
_atom_site_occupancy
_atom_site_attached_hydrogens
Na1 Na1+ 1 a 0 0 0 1. 0 
Na2 Na1+ 3 c 0.5 0.5 0 1. 0 
B1 B3+ 1 b 0.5 0.5 0.5 1. 0 
H1 H1- 4 e 0.603 0.603 0.603 1. 0 
B2 B3+ 3 d 0 0.5 0 1. 0 
H2 H1- 12 i 0.897 0.897 0.397 1. 0 

#End of data_182734-ICSD


