data_187575-ICSD
#?2014 by Fachinformationszentrum Karlsruhe, and the U.S. Secretary of 
#Commerce on behalf of the United States.  All rights reserved.
_database_code_ICSD                187575
_audit_creation_date               2013/08/01
_chemical_name_systematic
;
Sodium Potassium Aluminosilicate Hydroxide (2/2/12/12/8)
;
_chemical_formula_structural       'Na2 K2 (Al12 Si12 O40 (O H)8)'
_chemical_formula_sum              'H8 Al12 K2 Na2 O48 Si12'
_chemical_name_mineral             Muscovite-paragonite
_publ_section_title
;
Computational study of the elastic behavior of the 2M1 muscovite-
paragonite series
;
loop_
_citation_id
_citation_journal_abbrev
_citation_year
_citation_journal_volume
_citation_journal_issue
_citation_page_first
_citation_page_last
_citation_journal_id_ASTM
primary 'American Mineralogist' 2013 98 4 651 664 AMMIAY
_publ_author_name
;
Hernandez-Haro, N.;Ortega-Castro, J.;Perez Del Valle, C.;Munoz-
Santiburcio, D.;Sainz-Diaz, C.I.;Hernandez-Laguna, A.
;
_cell_length_a                     5.16218
_cell_length_b                     17.93381
_cell_length_c                     19.61901
_cell_angle_alpha                  89.99495
_cell_angle_beta                   95.28263
_cell_angle_gamma                  89.99961
_cell_volume                       1808.57
_cell_formula_units_Z              2
_symmetry_space_group_name_H-M     'P 1'
_symmetry_Int_Tables_number        1
loop_
_symmetry_equiv_pos_site_id
_symmetry_equiv_pos_as_xyz
  1	'x, y, z'
loop_
_atom_type_symbol
_atom_type_oxidation_number
Al3+	3
H1+	1
K1+	1
Na1+	1
O2-	-2
Si4+	4
loop_
_atom_site_label
_atom_site_type_symbol
_atom_site_symmetry_multiplicity
_atom_site_Wyckoff_symbol
_atom_site_fract_x
_atom_site_fract_y
_atom_site_fract_z
_atom_site_occupancy
_atom_site_attached_hydrogens
Na1 Na1+ 1 a 0.49949 0.21337 0.75030 1.0000 0 
Al1 Al3+ 1 a 0.24881 0.45722 0.49928 1.0000 0 
Si1 Si4+ 1 a 0.46090 0.03534 0.63933 1.0000 0 
Al2 Al3+ 1 a 0.46620 0.36874 0.63836 1.0000 0 
O1 O2- 1 a 0.46104 0.03093 0.55537 1.0000 0 
O2 O2- 1 a 0.38490 0.37483 0.54939 1.0000 0 
O3 O2- 1 a 0.45624 0.21747 0.55111 1.0000 0 
O4 O2- 1 a 0.40512 0.45672 0.67424 1.0000 0 
O5 O2- 1 a 0.25460 0.09942 0.66407 1.0000 0 
O6 O2- 1 a 0.75111 0.06487 0.67260 1.0000 0 
H1 H1+ 1 a 0.36153 0.17082 0.55425 1.0000 0 
Al3 Al3+ 1 a 0.75105 0.45723 0.00079 1.0000 0 
Si2 Si4+ 1 a 0.53895 0.03538 -0.13927 1.0000 0 
Al4 Al3+ 1 a 0.53379 0.36882 -0.13829 1.0000 0 
O7 O2- 1 a 0.53881 0.03096 -0.05530 1.0000 0 
O8 O2- 1 a 0.61498 0.37486 -0.04932 1.0000 0 
O9 O2- 1 a 0.54374 0.21747 -0.05103 1.0000 0 
O10 O2- 1 a 0.59483 0.45682 -0.17416 1.0000 0 
O11 O2- 1 a 0.74517 0.09950 -0.16400 1.0000 0 
O12 O2- 1 a 0.24871 0.06491 -0.17253 1.0000 0 
H2 H1+ 1 a 0.63847 0.17082 -0.05410 1.0000 0 
Na2 Na1+ 1 a 0.49982 0.28872 0.25015 1.0000 0 
Al5 Al3+ 1 a 0.75601 0.04277 0.49967 1.0000 0 
Si3 Si4+ 1 a 0.54267 0.46392 0.35835 1.0000 0 
Al6 Al3+ 1 a 0.53659 0.13243 0.36031 1.0000 0 
O13 O2- 1 a 0.54119 0.46975 0.44247 1.0000 0 
O14 O2- 1 a 0.62153 0.12499 0.44905 1.0000 0 
O15 O2- 1 a 0.54600 0.28170 0.44678 1.0000 0 
O16 O2- 1 a 0.59237 0.04370 0.32529 1.0000 0 
O17 O2- 1 a 0.74100 0.39639 0.33583 1.0000 0 
O18 O2- 1 a 0.24491 0.43893 0.32522 1.0000 0 
H3 H1+ 1 a 0.63917 0.32794 0.44026 1.0000 0 
Al7 Al3+ 1 a 0.24385 0.04278 0.00041 1.0000 0 
Si4 Si4+ 1 a 0.45717 0.46390 0.14174 1.0000 0 
Al8 Al3+ 1 a 0.46332 0.13244 0.13976 1.0000 0 
O19 O2- 1 a 0.45864 0.46975 0.05762 1.0000 0 
O20 O2- 1 a 0.37837 0.12499 0.05102 1.0000 0 
O21 O2- 1 a 0.45394 0.28168 0.05331 1.0000 0 
O22 O2- 1 a 0.40746 0.04370 0.17478 1.0000 0 
O23 O2- 1 a 0.25881 0.39637 0.16424 1.0000 0 
O24 O2- 1 a 0.75494 0.43890 0.17485 1.0000 0 
H4 H1+ 1 a 0.36077 0.32792 0.05986 1.0000 0 
K1 K1+ 1 a -0.00008 0.45324 0.75003 1.0000 0 
Al9 Al3+ 1 a 0.74861 0.20848 0.49915 1.0000 0 
Si5 Si4+ 1 a 0.98467 0.28443 0.63974 1.0000 0 
Si6 Si4+ 1 a 0.95073 0.12249 0.63857 1.0000 0 
O25 O2- 1 a 0.96800 0.27625 0.55518 1.0000 0 
O26 O2- 1 a 0.90451 0.12495 0.55517 1.0000 0 
O27 O2- 1 a 0.95573 0.47005 0.55135 1.0000 0 
O28 O2- 1 a 0.89124 0.20388 0.67282 1.0000 0 
O29 O2- 1 a 0.79661 0.35132 0.66057 1.0000 0 
O30 O2- 1 a 0.27866 0.29982 0.67525 1.0000 0 
H5 H1+ 1 a 0.87287 0.42455 0.56562 1.0000 0 
Al10 Al3+ 1 a 0.25133 0.20849 0.00093 1.0000 0 
Si7 Si4+ 1 a 0.01535 0.28448 -0.13965 1.0000 0 
Si8 Si4+ 1 a 0.04909 0.12252 -0.13850 1.0000 0 
O31 O2- 1 a 0.03197 0.27629 -0.05510 1.0000 0 
O32 O2- 1 a 0.09533 0.12497 -0.05511 1.0000 0 
O33 O2- 1 a 0.04416 0.47007 -0.05129 1.0000 0 
O34 O2- 1 a 0.10877 0.20393 -0.17273 1.0000 0 
O35 O2- 1 a 0.20346 0.35134 -0.16053 1.0000 0 
O36 O2- 1 a 0.72136 0.29989 -0.17515 1.0000 0 
H6 H1+ 1 a 0.12701 0.42458 -0.06556 1.0000 0 
K2 K1+ 1 a -0.00004 0.04370 0.25005 1.0000 0 
Al11 Al3+ 1 a 0.25567 0.29197 0.49894 1.0000 0 
Si9 Si4+ 1 a 0.01950 0.21664 0.35837 1.0000 0 
Si10 Si4+ 1 a 0.05186 0.37868 0.35926 1.0000 0 
O37 O2- 1 a 0.03519 0.22469 0.44298 1.0000 0 
O38 O2- 1 a 0.10314 0.37576 0.44265 1.0000 0 
O39 O2- 1 a 0.04697 0.02750 0.44728 1.0000 0 
O40 O2- 1 a 0.11700 0.29712 0.32558 1.0000 0 
O41 O2- 1 a 0.20577 0.14906 0.33801 1.0000 0 
O42 O2- 1 a 0.72499 0.20110 0.32322 1.0000 0 
H7 H1+ 1 a 0.12930 0.07256 0.43180 1.0000 0 
Al12 Al3+ 1 a 0.74423 0.29198 0.00114 1.0000 0 
Si11 Si4+ 1 a 0.98043 0.21662 0.14169 1.0000 0 
Si12 Si4+ 1 a 0.94797 0.37865 0.14081 1.0000 0 
O43 O2- 1 a 0.96476 0.22470 0.05708 1.0000 0 
O44 O2- 1 a 0.89665 0.37576 0.05742 1.0000 0 
O45 O2- 1 a 0.95286 0.02754 0.05278 1.0000 0 
O46 O2- 1 a 0.88287 0.29709 0.17449 1.0000 0 
O47 O2- 1 a 0.79420 0.14901 0.16201 1.0000 0 
O48 O2- 1 a 0.27493 0.20109 0.17685 1.0000 0 
H8 H1+ 1 a 0.87063 0.07261 0.06830 1.0000 0 
Na3 Na1+ 1 a 0.49954 0.71013 0.75028 1.0000 0 
Al13 Al3+ 1 a 0.25126 0.95673 0.50207 1.0000 0 
Si13 Si4+ 1 a 0.46021 0.53493 0.63802 1.0000 0 
Al14 Al3+ 1 a 0.46992 0.86828 0.64022 1.0000 0 
O49 O2- 1 a 0.45979 0.53030 0.55401 1.0000 0 
O50 O2- 1 a 0.38805 0.87410 0.55139 1.0000 0 
O51 O2- 1 a 0.46146 0.71610 0.55195 1.0000 0 
O52 O2- 1 a 0.40898 0.95671 0.67538 1.0000 0 
O53 O2- 1 a 0.25506 0.59933 0.66294 1.0000 0 
O54 O2- 1 a 0.75058 0.56410 0.67171 1.0000 0 
H9 H1+ 1 a 0.36595 0.66946 0.55416 1.0000 0 
Al15 Al3+ 1 a 0.74861 0.95676 -0.00198 1.0000 0 
Si14 Si4+ 1 a 0.53966 0.53500 -0.13793 1.0000 0 
Al16 Al3+ 1 a 0.53005 0.86834 -0.14013 1.0000 0 
O55 O2- 1 a 0.54008 0.53033 -0.05393 1.0000 0 
O56 O2- 1 a 0.61184 0.87414 -0.05130 1.0000 0 
O57 O2- 1 a 0.53840 0.71614 -0.05182 1.0000 0 
O58 O2- 1 a 0.59098 0.95677 -0.17530 1.0000 0 
O59 O2- 1 a 0.74472 0.59945 -0.16283 1.0000 0 
O60 O2- 1 a 0.24925 0.56416 -0.17161 1.0000 0 
H10 H1+ 1 a 0.63387 0.66949 -0.05399 1.0000 0 
K3 K1+ 1 a 0.50001 0.80374 0.25006 1.0000 0 
Al17 Al3+ 1 a 0.75356 0.54185 0.49797 1.0000 0 
Si15 Si4+ 1 a 0.54847 0.96545 0.36246 1.0000 0 
Al18 Al3+ 1 a 0.54158 0.62760 0.35896 1.0000 0 
O61 O2- 1 a 0.54583 0.96888 0.44621 1.0000 0 
O62 O2- 1 a 0.61643 0.62430 0.44843 1.0000 0 
O63 O2- 1 a 0.55488 0.78332 0.44831 1.0000 0 
O64 O2- 1 a 0.62027 0.54080 0.32240 1.0000 0 
O65 O2- 1 a 0.76220 0.90436 0.33730 1.0000 0 
O66 O2- 1 a 0.26507 0.93149 0.32849 1.0000 0 
H11 H1+ 1 a 0.65070 0.83022 0.44974 1.0000 0 
Al19 Al3+ 1 a 0.24630 0.54186 0.00212 1.0000 0 
Si16 Si4+ 1 a 0.45141 0.96545 0.13764 1.0000 0 
Al20 Al3+ 1 a 0.45832 0.62759 0.14115 1.0000 0 
O67 O2- 1 a 0.45407 0.96889 0.05388 1.0000 0 
O68 O2- 1 a 0.38345 0.62431 0.05168 1.0000 0 
O69 O2- 1 a 0.44499 0.78336 0.05177 1.0000 0 
O70 O2- 1 a 0.37960 0.54078 0.17769 1.0000 0 
O71 O2- 1 a 0.23771 0.90436 0.16279 1.0000 0 
O72 O2- 1 a 0.73483 0.93150 0.17161 1.0000 0 
H12 H1+ 1 a 0.34917 0.83026 0.05036 1.0000 0 
K4 K1+ 1 a -0.00005 0.95409 0.75003 1.0000 0 
Al21 Al3+ 1 a 0.75184 0.70690 0.49902 1.0000 0 
Si17 Si4+ 1 a 0.98802 0.78363 0.64030 1.0000 0 
Si18 Si4+ 1 a 0.95025 0.62187 0.63791 1.0000 0 
O73 O2- 1 a 0.97211 0.77485 0.55579 1.0000 0 
O74 O2- 1 a 0.90332 0.62379 0.55459 1.0000 0 
O75 O2- 1 a 0.96033 0.97165 0.55409 1.0000 0 
O76 O2- 1 a 0.89214 0.70312 0.67286 1.0000 0 
O77 O2- 1 a 0.80169 0.85124 0.66084 1.0000 0 
O78 O2- 1 a 0.28176 0.79892 0.67633 1.0000 0 
H13 H1+ 1 a 0.87883 0.92696 0.57064 1.0000 0 
Al22 Al3+ 1 a 0.24803 0.70692 0.00110 1.0000 0 
Si19 Si4+ 1 a 0.01195 0.78368 -0.14017 1.0000 0 
Si20 Si4+ 1 a 0.04959 0.62192 -0.13780 1.0000 0 
O79 O2- 1 a 0.02778 0.77489 -0.05566 1.0000 0 
O80 O2- 1 a 0.09660 0.62382 -0.05447 1.0000 0 
O81 O2- 1 a 0.03957 0.97166 -0.05399 1.0000 0 
O82 O2- 1 a 0.10789 0.70318 -0.17273 1.0000 0 
O83 O2- 1 a 0.19830 0.85129 -0.16073 1.0000 0 
O84 O2- 1 a 0.71821 0.79897 -0.17620 1.0000 0 
H14 H1+ 1 a 0.12106 0.92695 -0.07053 1.0000 0 
Na4 Na1+ 1 a 0.00000 0.55961 0.25008 1.0000 0 
Al23 Al3+ 1 a 0.26113 0.79036 0.50082 1.0000 0 
Si21 Si4+ 1 a 0.02301 0.71210 0.35993 1.0000 0 
Si22 Si4+ 1 a 0.05859 0.87656 0.36346 1.0000 0 
O85 O2- 1 a 0.04556 0.72040 0.44456 1.0000 0 
O86 O2- 1 a 0.10256 0.87391 0.44658 1.0000 0 
O87 O2- 1 a 0.04650 0.52903 0.44656 1.0000 0 
O88 O2- 1 a 0.10237 0.79477 0.32876 1.0000 0 
O89 O2- 1 a 0.20972 0.64534 0.33593 1.0000 0 
O90 O2- 1 a 0.73245 0.69573 0.32458 1.0000 0 
H15 H1+ 1 a 0.13104 0.57418 0.43224 1.0000 0 
Al24 Al3+ 1 a 0.73875 0.79041 -0.00071 1.0000 0 
Si23 Si4+ 1 a 0.97688 0.71210 0.14018 1.0000 0 
Si24 Si4+ 1 a 0.94130 0.87658 0.13665 1.0000 0 
O91 O2- 1 a 0.95432 0.72042 0.05554 1.0000 0 
O92 O2- 1 a 0.89735 0.87393 0.05353 1.0000 0 
O93 O2- 1 a 0.95338 0.52903 0.05351 1.0000 0 
O94 O2- 1 a 0.89753 0.79478 0.17134 1.0000 0 
O95 O2- 1 a 0.79019 0.64534 0.16417 1.0000 0 
O96 O2- 1 a 0.26746 0.69573 0.17552 1.0000 0 
H16 H1+ 1 a 0.86886 0.57416 0.06788 1.0000 0 

#End of data_187575-ICSD


