data_169186-ICSD
#?2014 by Fachinformationszentrum Karlsruhe, and the U.S. Secretary of 
#Commerce on behalf of the United States.  All rights reserved.
_database_code_ICSD                169186
_audit_creation_date               2011/02/01
_chemical_name_systematic          'Cadmium Zinc Sulfide (0.5/0.5/1)'
_chemical_formula_structural       'Cd0.5 Zn0.5 S'
_chemical_formula_sum              'Cd0.5 S1 Zn0.5'
_publ_section_title
;
First-principles calculations of structural, electronic and optical 
properties of Cdx Zn1-x S alloys
;
loop_
_citation_id
_citation_journal_abbrev
_citation_year
_citation_journal_volume
_citation_page_first
_citation_page_last
_citation_journal_id_ASTM
primary 'Journal of Alloys and Compounds' 2010 507 356 363 JALCEU
_publ_author_name
;
Noor, N.A.;Ikram, N.;Ali, S.;Nazir, S.;Alay e Abbas, S.M.;Shaukat, A.
;
_cell_length_a                     3.90
_cell_length_b                     3.90
_cell_length_c                     5.56
_cell_angle_alpha                  90.
_cell_angle_beta                   90.
_cell_angle_gamma                  90.
_cell_volume                       84.57
_cell_formula_units_Z              2
_symmetry_space_group_name_H-M     'P -4 m 2'
_symmetry_Int_Tables_number        115
loop_
_symmetry_equiv_pos_site_id
_symmetry_equiv_pos_as_xyz
  1	'-y, -x, -z'
  2	'x, -y, z'
  3	'y, x, -z'
  4	'-x, y, z'
  5	'y, -x, -z'
  6	'-x, -y, z'
  7	'-y, x, -z'
  8	'x, y, z'
loop_
_atom_type_symbol
_atom_type_oxidation_number
Cd2+	2
S2-	-2
Zn2+	2
loop_
_atom_site_label
_atom_site_type_symbol
_atom_site_symmetry_multiplicity
_atom_site_Wyckoff_symbol
_atom_site_fract_x
_atom_site_fract_y
_atom_site_fract_z
_atom_site_occupancy
_atom_site_attached_hydrogens
Cd1 Cd2+ 1 a 0 0 0 1. 0 
Zn1 Zn2+ 1 c 0.5 0.5 0.5 1. 0 
S1 S2- 2 g 0 0.5 0.250 1. 0 

#End of data_169186-ICSD


