data_245987-ICSD
#?2014 by Fachinformationszentrum Karlsruhe, and the U.S. Secretary of 
#Commerce on behalf of the United States.  All rights reserved.
_database_code_ICSD                245987
_audit_creation_date               2009/02/01
_chemical_name_systematic          'Dicesium Trilithium Pentaiodide'
_chemical_formula_structural       'Cs2 Li3 I5'
_chemical_formula_sum              'Cs2 I5 Li3'
_publ_section_title
;
Ab initio prediction of the low-temperature phase diagrams in the 
systems CsX-LiX (X = F, Cl, Br, I)
;
loop_
_citation_id
_citation_journal_abbrev
_citation_year
_citation_journal_volume
_citation_journal_issue
_citation_page_first
_citation_page_last
_citation_journal_id_ASTM
primary 'Solid State Sciences' 2008 10 6 804 813 SSSCFJ
_publ_author_name
;
Pentin, I.V.;Schoen, J.C.;Jansen, M.
;
_cell_length_a                     17.78
_cell_length_b                     5.04
_cell_length_c                     11.72
_cell_angle_alpha                  90.
_cell_angle_beta                   115.73
_cell_angle_gamma                  90.
_cell_volume                       946.11
_cell_formula_units_Z              2
_symmetry_space_group_name_H-M     'C 1 2/m 1'
_symmetry_Int_Tables_number        12
loop_
_symmetry_equiv_pos_site_id
_symmetry_equiv_pos_as_xyz
  1	'-x, y, -z'
  2	'-x, -y, -z'
  3	'x, -y, z'
  4	'x, y, z'
  5	'-x+.5, y+.5, -z'
  6	'-x+.5, -y+.5, -z'
  7	'x+.5, -y+.5, z'
  8	'x+.5, y+.5, z'
loop_
_atom_type_symbol
_atom_type_oxidation_number
Cs1+	1
I1-	-1
Li1+	1
loop_
_atom_site_label
_atom_site_type_symbol
_atom_site_symmetry_multiplicity
_atom_site_Wyckoff_symbol
_atom_site_fract_x
_atom_site_fract_y
_atom_site_fract_z
_atom_site_occupancy
_atom_site_attached_hydrogens
Cs1 Cs1+ 4 i 0.30986 0 0.76639 1. 0 
Li1 Li1+ 2 d 0 0.5 0.5 1. 0 
Li2 Li1+ 4 i 0.05212 0 0.80234 1. 0 
I1 I1- 2 a 0 0 0 1. 0 
I2 I1- 4 i 0.09746 0 0.43083 1. 0 
I3 I1- 4 i 0.63309 0 0.79485 1. 0 

#End of data_245987-ICSD


