data_162794-ICSD
#?2014 by Fachinformationszentrum Karlsruhe, and the U.S. Secretary of 
#Commerce on behalf of the United States.  All rights reserved.
_database_code_ICSD                162794
_audit_creation_date               2009/08/01
_chemical_name_systematic
;
Tricalcium Nitride - Delta, Hypothetical
;
_chemical_formula_structural       'Ca3 N2'
_chemical_formula_sum              'Ca3 N2'
_publ_section_title
;
Density functional study of calcium nitride: refined geometries and 
prediction of high-pressure phases
;
loop_
_citation_id
_citation_journal_abbrev
_citation_year
_citation_journal_volume
_citation_journal_issue
_citation_page_first
_citation_page_last
_citation_journal_id_ASTM
primary 'Journal of Physical Chemistry C' 2009 113 7 2943 2949 JPCCCK
_publ_author_name                  'Roemer, S.R.;Schnick, W.;Kroll, P.'
_cell_length_a                     15.0498
_cell_length_b                     3.7830
_cell_length_c                     9.3490
_cell_angle_alpha                  90.
_cell_angle_beta                   100.54
_cell_angle_gamma                  90.
_cell_volume                       523.29
_cell_formula_units_Z              6
_symmetry_space_group_name_H-M     'C 1 2/m 1'
_symmetry_Int_Tables_number        12
loop_
_symmetry_equiv_pos_site_id
_symmetry_equiv_pos_as_xyz
  1	'-x, y, -z'
  2	'-x, -y, -z'
  3	'x, -y, z'
  4	'x, y, z'
  5	'-x+.5, y+.5, -z'
  6	'-x+.5, -y+.5, -z'
  7	'x+.5, -y+.5, z'
  8	'x+.5, y+.5, z'
loop_
_atom_type_symbol
_atom_type_oxidation_number
Ca2+	2
N3-	-3
loop_
_atom_site_label
_atom_site_type_symbol
_atom_site_symmetry_multiplicity
_atom_site_Wyckoff_symbol
_atom_site_fract_x
_atom_site_fract_y
_atom_site_fract_z
_atom_site_occupancy
_atom_site_attached_hydrogens
Ca1 Ca2+ 4 i 0.12567 0 0.27775 1. 0 
Ca2 Ca2+ 4 i 0.32800 0.5 0.03518 1. 0 
Ca3 Ca2+ 4 i 0.28973 0.5 0.37949 1. 0 
Ca4 Ca2+ 4 i 0.46826 0 0.33945 1. 0 
Ca5 Ca2+ 2 b 0 0.5 0 1. 0 
N1 N3- 4 i 0.14105 0.5 0.48828 1. 0 
N2 N3- 4 i 0.18256 0.5 0.13023 1. 0 
N3 N3- 4 i 0.46936 0.5 0.18775 1. 0 

#End of data_162794-ICSD


