data_186802-ICSD
#?2014 by Fachinformationszentrum Karlsruhe, and the U.S. Secretary of 
#Commerce on behalf of the United States.  All rights reserved.
_database_code_ICSD                186802
_audit_creation_date               2013/08/01
_chemical_name_systematic          'Dibismuth Zinc Titanium Hexaoxide'
_chemical_formula_structural       'Bi2 Zn Ti O6'
_chemical_formula_sum              'Bi2 O6 Ti1 Zn1'
_publ_section_title
;
Structural, electronic, and polarization properties of Bi2 Zn Ti O6 
supercell from first-principles
;
loop_
_citation_id
_citation_journal_abbrev
_citation_year
_citation_journal_volume
_citation_journal_issue
_citation_page_first
_citation_page_last
_citation_journal_id_ASTM
primary 'Journal of Applied Physics' 2012 111 11 114101-1 114101-8 JAPIAU
_publ_author_name                  'Dai, Jian-Qing;Fang, Zhong'
_cell_length_a                     5.975
_cell_length_b                     5.975
_cell_length_c                     7.524
_cell_angle_alpha                  90.
_cell_angle_beta                   90.
_cell_angle_gamma                  90.
_cell_volume                       268.61
_cell_formula_units_Z              2
_symmetry_space_group_name_H-M     'A m m 2'
_symmetry_Int_Tables_number        38
loop_
_symmetry_equiv_pos_site_id
_symmetry_equiv_pos_as_xyz
  1	'x, -y, z'
  2	'-x, y, z'
  3	'-x, -y, z'
  4	'x, y, z'
  5	'x, -y+.5, z+.5'
  6	'-x, y+.5, z+.5'
  7	'-x, -y+.5, z+.5'
  8	'x, y+.5, z+.5'
loop_
_atom_type_symbol
_atom_type_oxidation_number
Bi3+	3
O2-	-2
Ti4+	4
Zn2+	2
loop_
_atom_site_label
_atom_site_type_symbol
_atom_site_symmetry_multiplicity
_atom_site_Wyckoff_symbol
_atom_site_fract_x
_atom_site_fract_y
_atom_site_fract_z
_atom_site_occupancy
_atom_site_attached_hydrogens
Bi1 Bi3+ 4 c 0.269 0 0.086 1. 0 
Zn1 Zn2+ 2 b 0.5 0 -0.488 1. 0 
Ti1 Ti4+ 2 a 0 0 -0.479 1. 0 
O1 O2- 4 e 0.5 -0.278 -0.311 1. 0 
O2 O2- 4 d 0 -0.253 -0.304 1. 0 
O3 O2- 4 c 0.240 0 0.431 1. 0 

#End of data_186802-ICSD


