data_290718-ICSD
#?2014 by Fachinformationszentrum Karlsruhe, and the U.S. Secretary of 
#Commerce on behalf of the United States.  All rights reserved.
_database_code_ICSD                290718
_audit_creation_date               2014/08/01
_chemical_name_systematic          'Lithium Iron Phosphate(V)'
_chemical_formula_structural       'Li Fe (P O4)'
_chemical_formula_sum              'Fe1 Li1 O4 P1'
_publ_section_title
;
Effect of C doping on the structural and electronic properties of Li 
Fe P O4: a first-principles investigation
;
loop_
_citation_id
_citation_journal_abbrev
_citation_year
_citation_journal_volume
_citation_journal_issue
_citation_page_first
_citation_page_last
_citation_journal_id_ASTM
primary 'Chinese Physics B' 2012 21 9 097401-1 097401-7 CPBHAJ
_publ_author_name
;
Xu, Gui-Gui;Wu, Jing;Chen, Zhi-Gao;Lin, Ying-Bin;Huang, Zhi-Gao
;
_cell_length_a                     10.397
_cell_length_b                     6.042
_cell_length_c                     4.745
_cell_angle_alpha                  90.
_cell_angle_beta                   90.
_cell_angle_gamma                  90.
_cell_volume                       298.07
_cell_formula_units_Z              4
_symmetry_space_group_name_H-M     'P n m a'
_symmetry_Int_Tables_number        62
loop_
_symmetry_equiv_pos_site_id
_symmetry_equiv_pos_as_xyz
  1	'x+.5, y, -z+.5'
  2	'x, -y+.5, z'
  3	'-x+.5, y+.5, z+.5'
  4	'-x, -y, -z'
  5	'-x+.5, -y, z+.5'
  6	'-x, y+.5, -z'
  7	'x+.5, -y+.5, -z+.5'
  8	'x, y, z'
loop_
_atom_type_symbol
_atom_type_oxidation_number
Fe2+	2
Li1+	1
O2-	-2
P5+	5
loop_
_atom_site_label
_atom_site_type_symbol
_atom_site_symmetry_multiplicity
_atom_site_Wyckoff_symbol
_atom_site_fract_x
_atom_site_fract_y
_atom_site_fract_z
_atom_site_occupancy
_atom_site_attached_hydrogens
Li1 Li1+ 4 a 0 0 0 1. 0 
Fe1 Fe2+ 4 c 0.282 0.25 0.978 1. 0 
P1 P5+ 4 c 0.096 0.25 0.423 1. 0 
O1 O2- 4 c 0.096 0.25 0.748 1. 0 
O2 O2- 4 c 0.456 0.25 0.206 1. 0 
O3 O2- 8 d 0.168 0.045 0.290 1. 0 

#End of data_290718-ICSD


