data_155717-ICSD
#?2014 by Fachinformationszentrum Karlsruhe, and the U.S. Secretary of 
#Commerce on behalf of the United States.  All rights reserved.
_database_code_ICSD                155717
_audit_creation_date               2007/08/01
_audit_update_record               2014/08/01
_chemical_name_systematic          'Magnesium Bis(tetrahydridoborate)'
_chemical_formula_structural       'Mg (B H4)2'
_chemical_formula_sum              'H8 B2 Mg1'
_publ_section_title
;
High hydrogen content complex hydrides: a density-functional study
;
loop_
_citation_id
_citation_journal_abbrev
_citation_year
_citation_journal_volume
_citation_page_first
_citation_page_last
_citation_journal_id_ASTM
primary 'Applied Physics Letters' 2006 89 071906-1 071906-3 APPLAB
_publ_author_name
;
Vajeeston, P.;Ravindran, P.;Kjekshus, A.;Fjellvag, H.
;
_cell_length_a                     4.3086
_cell_length_b                     6.0878
_cell_length_c                     8.3888
_cell_angle_alpha                  90.
_cell_angle_beta                   90.
_cell_angle_gamma                  90.
_cell_volume                       220.04
_cell_formula_units_Z              2
_symmetry_space_group_name_H-M     'P m c 21'
_symmetry_Int_Tables_number        26
loop_
_symmetry_equiv_pos_site_id
_symmetry_equiv_pos_as_xyz
  1	'x, -y, z+.5'
  2	'-x, -y, z+.5'
  3	'-x, y, z'
  4	'x, y, z'
loop_
_atom_type_symbol
_atom_type_oxidation_number
B3+	3
H1-	-1
Mg2+	2
loop_
_atom_site_label
_atom_site_type_symbol
_atom_site_symmetry_multiplicity
_atom_site_Wyckoff_symbol
_atom_site_fract_x
_atom_site_fract_y
_atom_site_fract_z
_atom_site_occupancy
_atom_site_attached_hydrogens
Mg1 Mg2+ 2 a 0 0.3014 0.0005 1. 0 
B1 B3+ 2 b 0.5 0.89806 0.47898 1. 0 
B2 B3+ 2 a 0 0.5179 0.2449 1. 0 
H1 H1- 2 b 0.5 0.7007 0.4426 1. 0 
H2 H1- 4 c 0.2810 0.9419 0.5665 1. 0 
H3 H1- 2 a 0 0.41734 0.37185 1. 0 
H4 H1- 2 a 0 0.2823 0.7559 1. 0 
H5 H1- 4 c 0.2388 0.5317 0.6763 1. 0 
H6 H1- 2 b 0.5 0.0075 0.3607 1. 0 

#End of data_155717-ICSD


