data_85744-ICSD
#?2014 by Fachinformationszentrum Karlsruhe, and the U.S. Secretary of 
#Commerce on behalf of the United States.  All rights reserved.
_database_code_ICSD                85744
_audit_creation_date               1999/11/30
_chemical_name_systematic          'Dialuminium Silicate Oxide'
_chemical_formula_structural       'Al2 (Si O4) O'
_chemical_formula_sum              'Al2 O5 Si1'
_chemical_name_mineral             Sillimanite
_publ_section_title
;
Computer simulation of the structure, properties and stability of the 
Al2 Si O5 polymorphs: I. Ionic model
;
loop_
_citation_id
_citation_journal_abbrev
_citation_year
_citation_journal_volume
_citation_page_first
_citation_page_last
_citation_journal_id_ASTM
primary Geokhimiya 1998 5 456 474 GEOKAQ
2 'Geochemistry International' 1998 5 397 414 GCINAP
_publ_author_name
;
Urusov, V.S.;Oganov, A.P.;Eremin, N.N.
;
_cell_length_a                     7.1525
_cell_length_b                     7.5399
_cell_length_c                     5.9185
_cell_angle_alpha                  90.
_cell_angle_beta                   90.
_cell_angle_gamma                  90.
_cell_volume                       319.18
_cell_formula_units_Z              4
_symmetry_space_group_name_H-M     'P b n m'
_symmetry_Int_Tables_number        62
loop_
_symmetry_equiv_pos_site_id
_symmetry_equiv_pos_as_xyz
  1	'-x+.5, y+.5, z'
  2	'x, y, -z+.5'
  3	'x+.5, -y+.5, z+.5'
  4	'-x, -y, -z'
  5	'x+.5, -y+.5, -z'
  6	'-x, -y, z+.5'
  7	'-x+.5, y+.5, -z+.5'
  8	'x, y, z'
loop_
_atom_type_symbol
_atom_type_oxidation_number
Al3+	3
O2-	-2
Si4+	4
loop_
_atom_site_label
_atom_site_type_symbol
_atom_site_symmetry_multiplicity
_atom_site_Wyckoff_symbol
_atom_site_fract_x
_atom_site_fract_y
_atom_site_fract_z
_atom_site_occupancy
_atom_site_attached_hydrogens
Al1 Al3+ 4 a 0 0 0 1. 0 
Al2 Al3+ 4 c 0.1374 0.3421 0.25 1. 0 
Si1 Si4+ 4 c 0.1512 0.3359 0.75 1. 0 
O1 O2- 4 c 0.3701 0.4022 0.75 1. 0 
O2 O2- 4 c 0.3572 0.436 0.25 1. 0 
O3 O2- 4 c 0.4745 0.0036 0.75 1. 0 
O4 O2- 8 d 0.1232 0.2229 0.512 1. 0 

#End of data_85744-ICSD


