data_186255-ICSD
#?2014 by Fachinformationszentrum Karlsruhe, and the U.S. Secretary of 
#Commerce on behalf of the United States.  All rights reserved.
_database_code_ICSD                186255
_audit_creation_date               2013/02/01
_chemical_name_systematic          'Silver Niobate'
_chemical_formula_structural       'Ag (Nb O3)'
_chemical_formula_sum              'Ag1 Nb1 O3'
_publ_section_title
;
First principles study of lead free piezoelectric Ag Nb O3 and (Ag1-x 
Kx) Nb O3 solid solutions
;
loop_
_citation_id
_citation_journal_abbrev
_citation_year
_citation_journal_volume
_citation_journal_issue
_citation_page_first
_citation_page_last
_citation_journal_id_ASTM
primary 'Solid State Communications' 2012 152 17 1707 1710 SSCOA4
_publ_author_name                  'Niranjan, M.K.;Asthana, S.'
_cell_length_a                     5.456
_cell_length_b                     5.542
_cell_length_c                     15.395
_cell_angle_alpha                  90.
_cell_angle_beta                   90.
_cell_angle_gamma                  90.
_cell_volume                       465.5
_cell_formula_units_Z              8
_symmetry_space_group_name_H-M     'P b c m'
_symmetry_Int_Tables_number        57
loop_
_symmetry_equiv_pos_site_id
_symmetry_equiv_pos_as_xyz
  1	'x, -y+.5, z+.5'
  2	'-x, y+.5, z'
  3	'x, y, -z+.5'
  4	'-x, -y, -z'
  5	'-x, y+.5, -z+.5'
  6	'x, -y+.5, -z'
  7	'-x, -y, z+.5'
  8	'x, y, z'
loop_
_atom_type_symbol
_atom_type_oxidation_number
Ag1+	1
Nb5+	5
O2-	-2
loop_
_atom_site_label
_atom_site_type_symbol
_atom_site_symmetry_multiplicity
_atom_site_Wyckoff_symbol
_atom_site_fract_x
_atom_site_fract_y
_atom_site_fract_z
_atom_site_occupancy
_atom_site_attached_hydrogens
Ag1 Ag1+ 4 d 0.7615 0.2221 0.75 1. 0 
Ag2 Ag1+ 4 c 0.7563 0.25 0.5 1. 0 
Nb1 Nb5+ 8 e 0.7442 0.7243 0.6250 1. 0 
O1 O2- 4 c 0.8214 0.75 0.5 1. 0 
O2 O2- 8 e 0.4531 0.5462 0.6071 1. 0 
O3 O2- 8 e 0.9541 0.4594 0.6430 1. 0 
O4 O2- 4 d 0.6820 0.7781 0.75 1. 0 

#End of data_186255-ICSD


