data_187438-ICSD
#?2014 by Fachinformationszentrum Karlsruhe, and the U.S. Secretary of 
#Commerce on behalf of the United States.  All rights reserved.
_database_code_ICSD                187438
_audit_creation_date               2013/08/01
_chemical_name_systematic          'Magnesium Bis(tetrahydridoborate)'
_chemical_formula_structural       'Mg (B H4)2'
_chemical_formula_sum              'H8 B2 Mg1'
_publ_section_title
;
Ab initio crystal structure prediction by combining symmetry analysis 
representations and total energy calculations. An insight into the 
structure of Mg (B H4)2
;
loop_
_citation_id
_citation_journal_abbrev
_citation_year
_citation_journal_volume
_citation_journal_issue
_citation_page_first
_citation_page_last
_citation_journal_id_ASTM
primary 'Physical Chemistry Chemical Physics' 2013 15 5 1471 1480 PPCPFQ
_publ_author_name
;
Caputo, Riccarda;Kupczak, Arkadiusz;Sikora, Wieslawa;Tekin, Adem
;
_cell_length_a                     8.198
_cell_length_b                     8.198
_cell_length_c                     10.449
_cell_angle_alpha                  90.
_cell_angle_beta                   90.
_cell_angle_gamma                  90.
_cell_volume                       702.25
_cell_formula_units_Z              4
_symmetry_space_group_name_H-M     'I -4 m 2'
_symmetry_Int_Tables_number        119
loop_
_symmetry_equiv_pos_site_id
_symmetry_equiv_pos_as_xyz
  1	'y, x, -z'
  2	'-y, -x, -z'
  3	'y, -x, -z'
  4	'-y, x, -z'
  5	'x, -y, z'
  6	'-x, y, z'
  7	'-x, -y, z'
  8	'x, y, z'
  9	'y+.5, x+.5, -z+.5'
 10	'-y+.5, -x+.5, -z+.5'
 11	'y+.5, -x+.5, -z+.5'
 12	'-y+.5, x+.5, -z+.5'
 13	'x+.5, -y+.5, z+.5'
 14	'-x+.5, y+.5, z+.5'
 15	'-x+.5, -y+.5, z+.5'
 16	'x+.5, y+.5, z+.5'
loop_
_atom_type_symbol
_atom_type_oxidation_number
B3+	3
H1-	-1
Mg2+	2
loop_
_atom_site_label
_atom_site_type_symbol
_atom_site_symmetry_multiplicity
_atom_site_Wyckoff_symbol
_atom_site_fract_x
_atom_site_fract_y
_atom_site_fract_z
_atom_site_occupancy
_atom_site_attached_hydrogens
Mg1 Mg2+ 2 d 0 0.5 0.750 1. 0 
Mg2 Mg2+ 2 a 0 0 0 1. 0 
H1 H1- 16 j 0.1608 0.1264 0.1188 1. 0 
B1 B3+ 8 i 0.2322 0 0.1463 1. 0 
H2 H1- 8 i 0.3608 0 0.0860 1. 0 
H3 H1- 8 i 0.2455 0 0.2629 1. 0 

#End of data_187438-ICSD


