data_67751-ICSD
#?2014 by Fachinformationszentrum Karlsruhe, and the U.S. Secretary of 
#Commerce on behalf of the United States.  All rights reserved.
_database_code_ICSD                67751
_audit_creation_date               1994/06/30
_audit_update_record               2006/04/01
_chemical_name_systematic          'Cesium Lithium Sulfate(VI)'
_chemical_formula_structural       'Cs Li (S O4)'
_chemical_formula_sum              'Cs1 Li1 O4 S1'
_publ_section_title
;
Lattice- and molecular-dynamics studies of phase transitions in Cs Li 
S O4
;
loop_
_citation_id
_citation_journal_abbrev
_citation_year
_citation_journal_volume
_citation_journal_issue
_citation_page_first
_citation_page_last
_citation_journal_id_ASTM
primary 'Physical Review, Serie 3. B - Condensed Matter (18,1978-)'
 1992 46 10 5982 5988 PRBMDO
2 'Golden Book of Phase Transitions, Wroclaw' 2002 1- 1 123 GBOPT5
_publ_author_name                  'Katkanant, V.;Lu, H.M.;Hardy, J.R.'
_cell_length_a                     8.36
_cell_length_b                     9.223
_cell_length_c                     5.306
_cell_angle_alpha                  90.
_cell_angle_beta                   90.
_cell_angle_gamma                  90.
_cell_volume                       409.12
_cell_formula_units_Z              4
_symmetry_space_group_name_H-M     'P n a m'
_symmetry_Int_Tables_number        62
loop_
_symmetry_equiv_pos_site_id
_symmetry_equiv_pos_as_xyz
  1	'x+.5, -y+.5, z'
  2	'x, y, -z+.5'
  3	'-x+.5, y+.5, z+.5'
  4	'-x, -y, -z'
  5	'-x+.5, y+.5, -z'
  6	'-x, -y, z+.5'
  7	'x+.5, -y+.5, -z+.5'
  8	'x, y, z'
loop_
_atom_type_symbol
_atom_type_oxidation_number
Cs1+	1
Li1+	1
O2-	-2
S6+	6
loop_
_atom_site_label
_atom_site_type_symbol
_atom_site_symmetry_multiplicity
_atom_site_Wyckoff_symbol
_atom_site_fract_x
_atom_site_fract_y
_atom_site_fract_z
_atom_site_occupancy
_atom_site_attached_hydrogens
S1 S6+ 4 c 0.2049 0.0791 0.25 1. 0 
Cs1 Cs1+ 4 c 0.9951 0.282 0.25 1. 0 
Li1 Li1+ 4 c 0.3142 0.4161 0.25 1. 0 
O1 O2- 4 c 0.2616 0.2301 0.25 1. 0 
O2 O2- 4 c 0.0289 0.0778 0.25 1. 0 
O3 O2- 8 d 0.2645 0.0041 0.0235 1. 0 

#End of data_67751-ICSD


