data_261750-ICSD
#?2014 by Fachinformationszentrum Karlsruhe, and the U.S. Secretary of 
#Commerce on behalf of the United States.  All rights reserved.
_database_code_ICSD                261750
_audit_creation_date               2012/02/01
_chemical_name_systematic          'Sodium Tetrahydridoborate'
_chemical_formula_structural       'Na (B H4)'
_chemical_formula_sum              'H4 B1 Na1'
_publ_section_title
;
Ab-initio crystal structure prediction. A case study: Na B H4
;
loop_
_citation_id
_citation_journal_abbrev
_citation_year
_citation_journal_volume
_citation_journal_issue
_citation_page_first
_citation_page_last
_citation_journal_id_ASTM
primary 'Journal of Solid State Chemistry' 2011 184 7 1622 1630 JSSCBI
_publ_author_name                  'Caputo, R.;Tekin, A.'
_cell_length_a                     4.357
_cell_length_b                     4.357
_cell_length_c                     5.902
_cell_angle_alpha                  90.
_cell_angle_beta                   90.
_cell_angle_gamma                  90.
_cell_volume                       112.04
_cell_formula_units_Z              2
_symmetry_space_group_name_H-M     'P 42/n m c S'
_symmetry_Int_Tables_number        137
loop_
_symmetry_equiv_pos_site_id
_symmetry_equiv_pos_as_xyz
  1	'-y+.5, -x+.5, z+.5'
  2	'y+.5, x+.5, z+.5'
  3	'-y, -x, -z'
  4	'y, x, -z'
  5	'y+.5, -x+.5, z+.5'
  6	'-y+.5, x+.5, z+.5'
  7	'y, -x, -z'
  8	'-y, x, -z'
  9	'x+.5, -y+.5, -z+.5'
 10	'-x+.5, y+.5, -z+.5'
 11	'x, -y, z'
 12	'-x, y, z'
 13	'-x+.5, -y+.5, -z+.5'
 14	'x+.5, y+.5, -z+.5'
 15	'-x, -y, z'
 16	'x, y, z'
loop_
_atom_type_symbol
_atom_type_oxidation_number
B3+	3
H1-	-1
Na1+	1
loop_
_atom_site_label
_atom_site_type_symbol
_atom_site_symmetry_multiplicity
_atom_site_Wyckoff_symbol
_atom_site_fract_x
_atom_site_fract_y
_atom_site_fract_z
_atom_site_occupancy
_atom_site_attached_hydrogens
Na1 Na1+ 2 b 0 0 0.5 1. 0 
B1 B3+ 2 a 0 0 0 1. 0 
H1 H1- 8 g 0 -0.22868 0.88196 1. 0 

#End of data_261750-ICSD


