data_166472-ICSD
#?2014 by Fachinformationszentrum Karlsruhe, and the U.S. Secretary of 
#Commerce on behalf of the United States.  All rights reserved.
_database_code_ICSD                166472
_audit_creation_date               2010/08/01
_chemical_name_systematic
;
Dilithium Iron Phosphate(V) Fluoride
;
_chemical_formula_structural       'Li2 Fe (P O4) F'
_chemical_formula_sum              'F1 Fe1 Li2 O4 P1'
_publ_section_title
;
Ab initio study of lithium and sodium iron fluorophosphate cathodes 
for rechargeable batteries
;
loop_
_citation_id
_citation_journal_abbrev
_citation_year
_citation_journal_volume
_citation_page_first
_citation_page_last
_citation_journal_id_ASTM
primary 'Applied Physics Letters' 2009 94 151904-1 151904-3 APPLAB
_publ_author_name                  'Ramzan, M.;Lebegue, S.;Ahuja, R.'
_cell_length_a                     4.95
_cell_length_b                     13.09
_cell_length_c                     11.17
_cell_angle_alpha                  90.
_cell_angle_beta                   90.
_cell_angle_gamma                  90.
_cell_volume                       723.77
_cell_formula_units_Z              8
_symmetry_space_group_name_H-M     'P b c n'
_symmetry_Int_Tables_number        60
loop_
_symmetry_equiv_pos_site_id
_symmetry_equiv_pos_as_xyz
  1	'x, -y, z+.5'
  2	'-x+.5, y+.5, z'
  3	'x+.5, y+.5, -z+.5'
  4	'-x, -y, -z'
  5	'-x, y, -z+.5'
  6	'x+.5, -y+.5, -z'
  7	'-x+.5, -y+.5, z+.5'
  8	'x, y, z'
loop_
_atom_type_symbol
_atom_type_oxidation_number
F1-	-1
Fe2+	2
Li1+	1
O2-	-2
P5+	5
loop_
_atom_site_label
_atom_site_type_symbol
_atom_site_symmetry_multiplicity
_atom_site_Wyckoff_symbol
_atom_site_fract_x
_atom_site_fract_y
_atom_site_fract_z
_atom_site_occupancy
_atom_site_attached_hydrogens
Li1 Li1+ 8 d 0.2869 0.2389 0.3242 1. 0 
Li2 Li1+ 8 d 0.2092 0.1357 0.0993 1. 0 
Fe1 Fe2+ 8 d 0.2313 0.0074 0.3331 1. 0 
P1 P5+ 8 d 0.2019 0.3702 0.0844 1. 0 
O1 O2- 8 d 0.2947 0.3685 0.9527 1. 0 
O2 O2- 8 d 0.3080 0.2755 0.1488 1. 0 
O3 O2- 8 d 0.8845 0.3768 0.0901 1. 0 
O4 O2- 8 d 0.3151 0.4694 0.1438 1. 0 
F1 F1- 8 d 0.0006 0.1326 0.2501 1. 0 

#End of data_166472-ICSD


