data_168904-ICSD
#?2014 by Fachinformationszentrum Karlsruhe, and the U.S. Secretary of 
#Commerce on behalf of the United States.  All rights reserved.
_database_code_ICSD                168904
_audit_creation_date               2011/02/01
_chemical_name_systematic
;
Calcium Manganate(IV) - Tetragonal, A-type Antiferromagnetic 
Configuration
;
_chemical_formula_structural       'Ca (Mn O3)'
_chemical_formula_sum              'Ca1 Mn1 O3'
_publ_section_title
;
Theoretical analysis of the spin effect on the electronic and 
magnetic properties of the calcium manganese oxide Ca Mn O3: GGA+U 
calculation
;
loop_
_citation_id
_citation_journal_abbrev
_citation_year
_citation_journal_volume
_citation_page_first
_citation_page_last
_citation_journal_id_ASTM
primary 'Physica B, Condensed Matter' 2010 405 4595 4606 PHYBE3
_publ_author_name                  'Hamdad, N.;Bouhafs, B.'
_cell_length_a                     4.6322
_cell_length_b                     4.6322
_cell_length_c                     4.6385
_cell_angle_alpha                  90.
_cell_angle_beta                   90.
_cell_angle_gamma                  90.
_cell_volume                       99.53
_cell_formula_units_Z              2
_symmetry_space_group_name_H-M     'P 4/m m m'
_symmetry_Int_Tables_number        123
loop_
_symmetry_equiv_pos_site_id
_symmetry_equiv_pos_as_xyz
  1	'y, x, -z'
  2	'-y, -x, -z'
  3	'-y, x, -z'
  4	'y, -x, -z'
  5	'-x, y, -z'
  6	'x, -y, -z'
  7	'x, y, -z'
  8	'-x, -y, -z'
  9	'-y, -x, z'
 10	'y, x, z'
 11	'y, -x, z'
 12	'-y, x, z'
 13	'x, -y, z'
 14	'-x, y, z'
 15	'-x, -y, z'
 16	'x, y, z'
loop_
_atom_type_symbol
_atom_type_oxidation_number
Ca2+	2
Mn4+	4
O2-	-2
loop_
_atom_site_label
_atom_site_type_symbol
_atom_site_symmetry_multiplicity
_atom_site_Wyckoff_symbol
_atom_site_fract_x
_atom_site_fract_y
_atom_site_fract_z
_atom_site_occupancy
_atom_site_attached_hydrogens
Ca1 Ca2+ 2 h 0.5 0.5 0.250 1. 0 
Mn1 Mn4+ 1 b 0 0 0.5 1. 0 
Mn2 Mn4+ 1 a 0 0 0 1. 0 
O1 O2- 2 f 0 0.5 0 1. 0 
O2 O2- 2 g 0 0 0.250 1. 0 
O3 O2- 2 e 0 0.5 0.5 1. 0 

#End of data_168904-ICSD


