data_186519-ICSD
#?2014 by Fachinformationszentrum Karlsruhe, and the U.S. Secretary of 
#Commerce on behalf of the United States.  All rights reserved.
_database_code_ICSD                186519
_audit_creation_date               2013/08/01
_chemical_name_systematic          'Dilithium Iron Silicate'
_chemical_formula_structural       'Li2 Fe (Si O4)'
_chemical_formula_sum              'Fe1 Li2 O4 Si1'
_publ_section_title
;
Structural properties and energetics of Li2 Fe Si O4 polymorphs and 
their delithiated products from first-principles
;
loop_
_citation_id
_citation_journal_abbrev
_citation_year
_citation_journal_volume
_citation_journal_issue
_citation_page_first
_citation_page_last
_citation_journal_id_ASTM
primary 'Physical Chemistry Chemical Physics' 2012 14 20 7346 7351 PPCPFQ
_publ_author_name
;
Zhang, P.;Hu, C.H.;Wu, S.Q.;Zhu, Z.Z.;Yang, Y.
;
_cell_length_a                     8.2865
_cell_length_b                     5.0879
_cell_length_c                     8.3177
_cell_angle_alpha                  90.
_cell_angle_beta                   87.932
_cell_angle_gamma                  90.
_cell_volume                       350.45
_cell_formula_units_Z              4
_symmetry_space_group_name_H-M     'P 1 21/n 1'
_symmetry_Int_Tables_number        14
loop_
_symmetry_equiv_pos_site_id
_symmetry_equiv_pos_as_xyz
  1	'-x+.5, y+.5, -z+.5'
  2	'-x, -y, -z'
  3	'x+.5, -y+.5, z+.5'
  4	'x, y, z'
loop_
_atom_type_symbol
_atom_type_oxidation_number
Fe2+	2
Li1+	1
O2-	-2
Si4+	4
loop_
_atom_site_label
_atom_site_type_symbol
_atom_site_symmetry_multiplicity
_atom_site_Wyckoff_symbol
_atom_site_fract_x
_atom_site_fract_y
_atom_site_fract_z
_atom_site_occupancy
_atom_site_attached_hydrogens
Li1 Li1+ 4 e 0.6658 0.7909 0.6715 1. 0 
Li2 Li1+ 4 e 0.5854 0.1928 0.0850 1. 0 
Fe1 Fe2+ 4 e 0.2928 0.8018 0.5427 1. 0 
Si1 Si4+ 4 e 0.0411 0.8079 0.7905 1. 0 
O1 O2- 4 e 0.8620 0.6915 0.8217 1. 0 
O2 O2- 4 e 0.4197 0.2000 0.8873 1. 0 
O3 O2- 4 e 0.6877 0.7876 0.4372 1. 0 
O4 O2- 4 e 0.9655 0.8673 0.2152 1. 0 

#End of data_186519-ICSD


