data_162775-ICSD
#?2014 by Fachinformationszentrum Karlsruhe, and the U.S. Secretary of 
#Commerce on behalf of the United States.  All rights reserved.
_database_code_ICSD                162775
_audit_creation_date               2009/08/01
_chemical_name_systematic
;
Lithium Beryllium Trihydride - Hypothetical
;
_chemical_formula_structural       'Li Be H3'
_chemical_formula_sum              'H3 Be1 Li1'
_publ_section_title
;
Crystal structure prediction of Li Be H3 using ab initio total-energy 
calculations and evolutionary simulations
;
loop_
_citation_id
_citation_journal_abbrev
_citation_year
_citation_journal_volume
_citation_page_first
_citation_page_last
_citation_journal_id_ASTM
primary 'Journal of Chemical Physics' 2008 129 234105-1 234105-12 JCPSA6
_publ_author_name
;
Hu Chaohao;Oganov, A.R.;Wang, Y.W.;Zhou, H.-Y.;Lyakhov, A.;Hafner, J.
;
_cell_length_a                     4.6593
_cell_length_b                     6.4569
_cell_length_c                     6.1205
_cell_angle_alpha                  96.6277
_cell_angle_beta                   106.7984
_cell_angle_gamma                  100.1679
_cell_volume                       170.78
_cell_formula_units_Z              4
_symmetry_space_group_name_H-M     'P 1'
_symmetry_Int_Tables_number        1
loop_
_symmetry_equiv_pos_site_id
_symmetry_equiv_pos_as_xyz
  1	'x, y, z'
loop_
_atom_type_symbol
_atom_type_oxidation_number
Be2+	2
H1-	-1
Li1+	1
loop_
_atom_site_label
_atom_site_type_symbol
_atom_site_symmetry_multiplicity
_atom_site_Wyckoff_symbol
_atom_site_fract_x
_atom_site_fract_y
_atom_site_fract_z
_atom_site_occupancy
_atom_site_attached_hydrogens
Li1 Li1+ 1 a 0.75408 0.42786 0.63227 1. 0 
Li2 Li1+ 1 a 0.94605 0.95135 0.65006 1. 0 
Li3 Li1+ 1 a 0.10399 0.27815 0.27861 1. 0 
Li4 Li1+ 1 a 0.29589 0.80158 0.29643 1. 0 
Be1 Be2+ 1 a 0.43699 0.74361 0.75557 1. 0 
Be2 Be2+ 1 a 0.28697 0.35431 0.77286 1. 0 
Be3 Be2+ 1 a 0.61333 0.48591 0.17312 1. 0 
Be4 Be2+ 1 a 0.76301 0.87520 0.15588 1. 0 
H1 H1- 1 a 0.25944 0.84465 0.58983 1. 0 
H2 H1- 1 a 0.55393 0.34257 0.95743 1. 0 
H3 H1- 1 a 0.21605 0.56190 0.76988 1. 0 
H4 H1- 1 a 0.70183 0.70824 0.70380 1. 0 
H5 H1- 1 a 0.49604 0.88690 0.97128 1. 0 
H6 H1- 1 a 0.00396 0.23576 0.77847 1. 0 
H7 H1- 1 a 0.35879 0.27647 0.57396 1. 0 
H8 H1- 1 a 0.83395 0.66760 0.15878 1. 0 
H9 H1- 1 a 0.04608 0.99372 0.15037 1. 0 
H10 H1- 1 a 0.34818 0.52127 0.22488 1. 0 
H11 H1- 1 a 0.79055 0.38483 0.33884 1. 0 
H12 H1- 1 a 0.69116 0.95928 0.35479 1. 0 

#End of data_162775-ICSD


