data_167517-ICSD
#?2014 by Fachinformationszentrum Karlsruhe, and the U.S. Secretary of 
#Commerce on behalf of the United States.  All rights reserved.
_database_code_ICSD                167517
_audit_creation_date               2011/02/01
_chemical_name_systematic          'Lithium Indium Silicate'
_chemical_formula_structural       'Li In (Si O4)'
_chemical_formula_sum              'In1 Li1 O4 Si1'
_publ_section_title
;
Ab initio prediction for the ionic conduction of lithium in Li In Si 
O4 and Li In Ge O4
;
loop_
_citation_id
_citation_journal_abbrev
_citation_year
_citation_journal_volume
_citation_page_first
_citation_page_last
_citation_journal_id_ASTM
primary 'Solid State Communications' 2010 150 693 696 SSCOA4
_publ_author_name
;
Rajkumar, T.;Nakayama, M.;Nogami, M.
;
_cell_length_a                     4.909
_cell_length_b                     10.658
_cell_length_c                     6.149
_cell_angle_alpha                  90.
_cell_angle_beta                   90.
_cell_angle_gamma                  90.
_cell_volume                       321.72
_cell_formula_units_Z              4
_symmetry_space_group_name_H-M     'P b n m'
_symmetry_Int_Tables_number        62
loop_
_symmetry_equiv_pos_site_id
_symmetry_equiv_pos_as_xyz
  1	'-x+.5, y+.5, z'
  2	'x, y, -z+.5'
  3	'x+.5, -y+.5, z+.5'
  4	'-x, -y, -z'
  5	'x+.5, -y+.5, -z'
  6	'-x, -y, z+.5'
  7	'-x+.5, y+.5, -z+.5'
  8	'x, y, z'
loop_
_atom_type_symbol
_atom_type_oxidation_number
In3+	3
Li1+	1
O2-	-2
Si4+	4
loop_
_atom_site_label
_atom_site_type_symbol
_atom_site_symmetry_multiplicity
_atom_site_Wyckoff_symbol
_atom_site_fract_x
_atom_site_fract_y
_atom_site_fract_z
_atom_site_occupancy
_atom_site_attached_hydrogens
Li1 Li1+ 4 a 0 0 0 1. 0 
In1 In3+ 4 c 0.983 0.276 0.25 1. 0 
Si1 Si4+ 4 c 0.428 0.089 0.25 1. 0 
O1 O2- 4 c 0.760 0.097 0.25 1. 0 
O2 O2- 4 c 0.295 0.947 0.25 1. 0 
O3 O2- 8 d 0.277 0.164 0.0421 1. 0 

#End of data_167517-ICSD


