data_180446-ICSD
#?2014 by Fachinformationszentrum Karlsruhe, and the U.S. Secretary of 
#Commerce on behalf of the United States.  All rights reserved.
_database_code_ICSD                180446
_audit_creation_date               2012/02/01
_chemical_name_systematic          'Magnesium Silicate - Hp'
_chemical_formula_structural       'Mg (Si O3)'
_chemical_formula_sum              'Mg1 O3 Si1'
_chemical_name_mineral             'Clinoenstatite HP'
_publ_section_title
;
First principles study of thermodynamics and phase transition in low-
pressure (P21/c) and high-pressure (C2/c) clinoenstatite Mg Si O3
;
loop_
_citation_id
_citation_journal_abbrev
_citation_year
_citation_journal_volume
_citation_page_first
_citation_page_last
_citation_journal_id_ASTM
primary 'Journal of geophysical research, American Geophysical Union'
 2010 115 B02201-1 B02201-10 JGEREE
_publ_author_name
;
Yu, Yong Gang G.;Wentzcovitch, R.M.;Angel, R.J.
;
_cell_length_a                     9.167
_cell_length_b                     8.60
_cell_length_c                     4.90
_cell_angle_alpha                  90.
_cell_angle_beta                   101.0
_cell_angle_gamma                  90.
_cell_volume                       379.2
_cell_formula_units_Z              8
_symmetry_space_group_name_H-M     'C 1 2/c 1'
_symmetry_Int_Tables_number        15
loop_
_symmetry_equiv_pos_site_id
_symmetry_equiv_pos_as_xyz
  1	'x, -y, z+.5'
  2	'-x, -y, -z'
  3	'-x, y, -z+.5'
  4	'x, y, z'
  5	'x+.5, -y+.5, z+.5'
  6	'-x+.5, -y+.5, -z'
  7	'-x+.5, y+.5, -z+.5'
  8	'x+.5, y+.5, z'
loop_
_atom_type_symbol
_atom_type_oxidation_number
Mg2+	2
O2-	-2
Si4+	4
loop_
_atom_site_label
_atom_site_type_symbol
_atom_site_symmetry_multiplicity
_atom_site_Wyckoff_symbol
_atom_site_fract_x
_atom_site_fract_y
_atom_site_fract_z
_atom_site_occupancy
_atom_site_attached_hydrogens
Mg1 Mg2+ 4 e 0 0.9076 0.250 1. 0 
Mg2 Mg2+ 4 e 0 0.2749 0.250 1. 0 
Si1 Si4+ 8 f 0.3001 0.0920 0.2088 1. 0 
O1 O2- 8 f 0.1215 0.0908 0.1379 1. 0 
O2 O2- 8 f 0.3775 0.2383 0.3696 1. 0 
O3 O2- 8 f 0.3583 0.0624 0.9092 1. 0 

#End of data_180446-ICSD


