data_187051-ICSD
#?2014 by Fachinformationszentrum Karlsruhe, and the U.S. Secretary of 
#Commerce on behalf of the United States.  All rights reserved.
_database_code_ICSD                187051
_audit_creation_date               2013/08/01
_chemical_name_systematic
;
Boron Aluminium Nitride (0.25/0.75/1)
;
_chemical_formula_structural       'B0.25 Al0.75 N'
_chemical_formula_sum              'Al0.75 B0.25 N1'
_publ_section_title
;
First-principles investigation of structural and electronic 
properties of the Bx Ga1-x N, Bx Al1-x N, Alx Ga1-x N and Bx Aly Ga1-
x-y N compounds
;
loop_
_citation_id
_citation_journal_abbrev
_citation_year
_citation_journal_volume
_citation_journal_issue
_citation_page_first
_citation_page_last
_citation_journal_id_ASTM
primary 'Acta Physica Polonica, A' 2012 122 4 748 753 ATPLB6
_publ_author_name
;
Djoudi, L.;Lachebi, A.;Merabet, B.;Abid, H.
;
_cell_length_a                     4.236
_cell_length_b                     4.236
_cell_length_c                     4.236
_cell_angle_alpha                  90.
_cell_angle_beta                   90.
_cell_angle_gamma                  90.
_cell_volume                       76.01
_cell_formula_units_Z              4
_symmetry_space_group_name_H-M     'P -4 3 m'
_symmetry_Int_Tables_number        215
loop_
_symmetry_equiv_pos_site_id
_symmetry_equiv_pos_as_xyz
  1	'-z, -y, x'
  2	'-y, -x, z'
  3	'-x, -z, y'
  4	'-z, -x, y'
  5	'-y, -z, x'
  6	'-x, -y, z'
  7	'-z, y, -x'
  8	'-y, x, -z'
  9	'-x, z, -y'
 10	'-z, x, -y'
 11	'-y, z, -x'
 12	'-x, y, -z'
 13	'z, -y, -x'
 14	'y, -x, -z'
 15	'x, -z, -y'
 16	'z, -x, -y'
 17	'y, -z, -x'
 18	'x, -y, -z'
 19	'z, y, x'
 20	'y, x, z'
 21	'x, z, y'
 22	'z, x, y'
 23	'y, z, x'
 24	'x, y, z'
loop_
_atom_type_symbol
_atom_type_oxidation_number
Al3+	3
B3+	3
N3-	-3
loop_
_atom_site_label
_atom_site_type_symbol
_atom_site_symmetry_multiplicity
_atom_site_Wyckoff_symbol
_atom_site_fract_x
_atom_site_fract_y
_atom_site_fract_z
_atom_site_occupancy
_atom_site_attached_hydrogens
B1 B3+ 1 a 0 0 0 1. 0 
Al1 Al3+ 3 c 0 0.5 0.5 1. 0 
N1 N3- 4 e 0.250 0.250 0.250 1. 0 

#End of data_187051-ICSD


