data_245983-ICSD
#?2014 by Fachinformationszentrum Karlsruhe, and the U.S. Secretary of 
#Commerce on behalf of the United States.  All rights reserved.
_database_code_ICSD                245983
_audit_creation_date               2009/02/01
_chemical_name_systematic          'Tricesium Lithium Tetraiodide'
_chemical_formula_structural       'Cs3 Li I4'
_chemical_formula_sum              'Cs3 I4 Li1'
_publ_section_title
;
Ab initio prediction of the low-temperature phase diagrams in the 
systems CsX-LiX (X = F, Cl, Br, I)
;
loop_
_citation_id
_citation_journal_abbrev
_citation_year
_citation_journal_volume
_citation_journal_issue
_citation_page_first
_citation_page_last
_citation_journal_id_ASTM
primary 'Solid State Sciences' 2008 10 6 804 813 SSSCFJ
_publ_author_name
;
Pentin, I.V.;Schoen, J.C.;Jansen, M.
;
_cell_length_a                     17.27
_cell_length_b                     9.83
_cell_length_c                     5.76
_cell_angle_alpha                  90.
_cell_angle_beta                   93.63
_cell_angle_gamma                  90.
_cell_volume                       975.88
_cell_formula_units_Z              2
_symmetry_space_group_name_H-M     'P 1 21/m 1'
_symmetry_Int_Tables_number        11
loop_
_symmetry_equiv_pos_site_id
_symmetry_equiv_pos_as_xyz
  1	'x, -y+.5, z'
  2	'-x, -y, -z'
  3	'-x, y+.5, -z'
  4	'x, y, z'
loop_
_atom_type_symbol
_atom_type_oxidation_number
Cs1+	1
I1-	-1
Li1+	1
loop_
_atom_site_label
_atom_site_type_symbol
_atom_site_symmetry_multiplicity
_atom_site_Wyckoff_symbol
_atom_site_fract_x
_atom_site_fract_y
_atom_site_fract_z
_atom_site_occupancy
_atom_site_attached_hydrogens
Cs1 Cs1+ 2 e 0.44897 0.25 0.70436 1. 0 
Cs2 Cs1+ 2 e 0.73453 0.25 0.37799 1. 0 
Cs3 Cs1+ 2 c 0 0 0.5 1. 0 
Li1 Li1+ 2 e 0.25026 0.25 0.11581 1. 0 
I1 I1- 4 f 0.63613 0.00019 0.83294 1. 0 
I2 I1- 2 e 0.18474 0.25 0.58631 1. 0 
I3 I1- 2 e 0.90995 0.25 0.95851 1. 0 

#End of data_245983-ICSD


