data_67752-ICSD
#?2014 by Fachinformationszentrum Karlsruhe, and the U.S. Secretary of 
#Commerce on behalf of the United States.  All rights reserved.
_database_code_ICSD                67752
_audit_creation_date               1994/06/30
_audit_update_record               2006/04/01
_chemical_name_systematic          'Cesium Lithium Sulfate(VI)'
_chemical_formula_structural       'Cs Li (S O4)'
_chemical_formula_sum              'Cs1 Li1 O4 S1'
_publ_section_title
;
Lattice- and molecular-dynamics studies of phase transitions in Cs Li 
S O4
;
loop_
_citation_id
_citation_journal_abbrev
_citation_year
_citation_journal_volume
_citation_journal_issue
_citation_page_first
_citation_page_last
_citation_journal_id_ASTM
primary 'Physical Review, Serie 3. B - Condensed Matter (18,1978-)'
 1992 46 10 5982 5988 PRBMDO
2 'Golden Book of Phase Transitions, Wroclaw' 2002 1- 1 123 GBOPT5
_publ_author_name                  'Katkanant, V.;Lu, H.M.;Hardy, J.R.'
_cell_length_a                     8.541
_cell_length_b                     9.028
_cell_length_c                     5.243
_cell_angle_alpha                  90.
_cell_angle_beta                   90.
_cell_angle_gamma                  89.767
_cell_volume                       404.27
_cell_formula_units_Z              4
_symmetry_space_group_name_H-M     'P 1 1 21/n'
_symmetry_Int_Tables_number        14
loop_
_symmetry_equiv_pos_site_id
_symmetry_equiv_pos_as_xyz
  1	'x+.5, y+.5, -z+.5'
  2	'-x, -y, -z'
  3	'-x+.5, -y+.5, z+.5'
  4	'x, y, z'
loop_
_atom_type_symbol
_atom_type_oxidation_number
Cs1+	1
Li1+	1
O2-	-2
S6+	6
loop_
_atom_site_label
_atom_site_type_symbol
_atom_site_symmetry_multiplicity
_atom_site_Wyckoff_symbol
_atom_site_fract_x
_atom_site_fract_y
_atom_site_fract_z
_atom_site_occupancy
_atom_site_attached_hydrogens
S1 S6+ 4 e 0.1975 0.0823 0.2457 1. 0 
Cs1 Cs1+ 4 e 0.9982 0.2768 0.7516 1. 0 
Li1 Li1+ 4 e 0.3144 0.4155 0.2457 1. 0 
O1 O2- 4 e 0.2556 0.2303 0.1729 1. 0 
O2 O2- 4 e 0.0251 0.085 0.2501 1. 0 
O3 O2- 4 e 0.2516 0.0276 0.0577 1. 0 
O4 O2- 4 e 0.256 0.0418 0.5014 1. 0 

#End of data_67752-ICSD


