data_153684-ICSD
#?2014 by Fachinformationszentrum Karlsruhe, and the U.S. Secretary of 
#Commerce on behalf of the United States.  All rights reserved.
_database_code_ICSD                153684
_audit_creation_date               2007/04/01
_audit_update_record               2008/02/01
_chemical_name_systematic
;
Tripotassium Hexahydridoaluminate - Gamma
;
_chemical_formula_structural       'K3 (Al H6)'
_chemical_formula_sum              'H6 Al1 K3'
_publ_section_title
;
First-principles investigations of aluminum hydrides: M3 Al H6 (M = 
Na, K)
;
loop_
_citation_id
_citation_journal_abbrev
_citation_year
_citation_journal_volume
_citation_page_first
_citation_page_last
_citation_journal_id_ASTM
primary 'Physical Review, Serie 3. B - Condensed Matter (18,1978-)'
 2005 71 092103-1 092103-4 PRBMDO
_publ_author_name
;
Vajeeston, P.;Ravindran, P.;Kjekshus, A.;Fjellvag, H.
;
_cell_length_a                     10.8885
_cell_length_b                     10.2576
_cell_length_c                     2.5538
_cell_angle_alpha                  90.
_cell_angle_beta                   90.
_cell_angle_gamma                  90.
_cell_volume                       285.23
_cell_formula_units_Z              4
_symmetry_space_group_name_H-M     'P n n m'
_symmetry_Int_Tables_number        58
loop_
_symmetry_equiv_pos_site_id
_symmetry_equiv_pos_as_xyz
  1	'x+.5, -y+.5, z+.5'
  2	'-x+.5, y+.5, z+.5'
  3	'x, y, -z'
  4	'-x, -y, -z'
  5	'-x+.5, y+.5, -z+.5'
  6	'x+.5, -y+.5, -z+.5'
  7	'-x, -y, z'
  8	'x, y, z'
loop_
_atom_type_symbol
_atom_type_oxidation_number
Al3+	3
H1-	-1
K1+	1
loop_
_atom_site_label
_atom_site_type_symbol
_atom_site_symmetry_multiplicity
_atom_site_Wyckoff_symbol
_atom_site_fract_x
_atom_site_fract_y
_atom_site_fract_z
_atom_site_occupancy
_atom_site_attached_hydrogens
K1 K1+ 4 g 0.2347 0.03444 0 1. 0 
K2 K1+ 4 g 0.55047 0.750 0 1. 0 
K3 K1+ 4 g 0.6910 0.2178 0 1. 0 
Al1 Al3+ 2 b 0.5 0.5 0 1. 0 
Al2 Al3+ 2 c 0 0.5 0 1. 0 
H1 H1- 4 g 0.9388 0.0715 0 1. 0 
H2 H1- 4 g 0.5928 0.3931 0 1. 0 
H3 H1- 4 g 0.3085 0.3814 0 1. 0 
H4 H1- 4 g 0.0632 0.3708 0 1. 0 
H5 H1- 4 g 0.4194 0.0352 0 1. 0 
H6 H1- 4 g 0.8387 0.3512 0 1. 0 

#End of data_153684-ICSD


