data_246195-ICSD
#?2014 by Fachinformationszentrum Karlsruhe, and the U.S. Secretary of 
#Commerce on behalf of the United States.  All rights reserved.
_database_code_ICSD                246195
_audit_creation_date               2009/02/01
_chemical_name_systematic
;
Pentasodium Trialuminium 14-hydride
;
_chemical_formula_structural       'Na5 Al3 H14'
_chemical_formula_sum              'H14 Al3 Na5'
_publ_section_title
;
An ab initio study of possible pathways in the thermal decomposition 
of Na Al H4
;
loop_
_citation_id
_citation_journal_abbrev
_citation_year
_citation_journal_volume
_citation_journal_issue
_citation_page_first
_citation_page_last
_citation_journal_id_ASTM
primary 'Journal of Solid State Chemistry' 2008 181 11 3037 3043 JSSCBI
_publ_author_name
;
Ojwang, J.G.O.;van Santen, R.A.;Kramer, G.J.;Ke Xuezhi
;
_cell_length_a                     6.769
_cell_length_b                     6.769
_cell_length_c                     10.289
_cell_angle_alpha                  90.
_cell_angle_beta                   90.
_cell_angle_gamma                  90.
_cell_volume                       471.44
_cell_formula_units_Z              2
_symmetry_space_group_name_H-M     'P 4/m n c'
_symmetry_Int_Tables_number        128
loop_
_symmetry_equiv_pos_site_id
_symmetry_equiv_pos_as_xyz
  1	'y+.5, x+.5, -z+.5'
  2	'-y+.5, -x+.5, -z+.5'
  3	'-y, x, -z'
  4	'y, -x, -z'
  5	'x+.5, -y+.5, -z+.5'
  6	'-x+.5, y+.5, -z+.5'
  7	'x, y, -z'
  8	'-x, -y, -z'
  9	'-y+.5, -x+.5, z+.5'
 10	'y+.5, x+.5, z+.5'
 11	'y, -x, z'
 12	'-y, x, z'
 13	'-x+.5, y+.5, z+.5'
 14	'x+.5, -y+.5, z+.5'
 15	'-x, -y, z'
 16	'x, y, z'
loop_
_atom_type_symbol
_atom_type_oxidation_number
Al3+	3
H1-	-1
Na1+	1
loop_
_atom_site_label
_atom_site_type_symbol
_atom_site_symmetry_multiplicity
_atom_site_Wyckoff_symbol
_atom_site_fract_x
_atom_site_fract_y
_atom_site_fract_z
_atom_site_occupancy
_atom_site_attached_hydrogens
Na1 Na1+ 2 b 0 0 0.5 1. 0 
Na2 Na1+ 8 g 0.2851 0.7851 0.25 1. 0 
Al1 Al3+ 2 a 0 0 0 1. 0 
Al2 Al3+ 4 c 0 0.5 0 1. 0 
H1 H1- 4 e 0 0 0.1694 1. 0 
H2 H1- 8 h 0.7522 0.0731 0 1. 0 
H3 H1- 16 i 0.3207 0.0420 0.6175 1. 0 

#End of data_246195-ICSD


