data_156314-ICSD
#?2014 by Fachinformationszentrum Karlsruhe, and the U.S. Secretary of 
#Commerce on behalf of the United States.  All rights reserved.
_database_code_ICSD                156314
_audit_creation_date               2007/08/01
_audit_update_record               2012/02/01
_chemical_name_systematic
;
Calcium Aluminium Hydride - Beta, Hp
;
_chemical_formula_structural       'Ca Al H5'
_chemical_formula_sum              'H5 Al1 Ca1'
_publ_section_title
;
Structure and bonding in B Al H5 (B= Be, Ca, Sr) from first-principle 
calculations
;
loop_
_citation_id
_citation_journal_abbrev
_citation_year
_citation_journal_volume
_citation_page_first
_citation_page_last
_citation_journal_id_ASTM
primary 'Journal of Alloys and Compounds' 2007 433 225 232 JALCEU
_publ_author_name
;
Klaveness, A.;Vajeeston, P.;Ravindran, P.;Fjellvag, H.;Kjekshus, A.
;
_cell_length_a                     11.911
_cell_length_b                     4.832
_cell_length_c                     4.196
_cell_angle_alpha                  90.
_cell_angle_beta                   90.
_cell_angle_gamma                  90.
_cell_volume                       241.5
_cell_formula_units_Z              4
_symmetry_space_group_name_H-M     'P 21 21 21'
_symmetry_Int_Tables_number        19
loop_
_symmetry_equiv_pos_site_id
_symmetry_equiv_pos_as_xyz
  1	'-x, y+.5, -z+.5'
  2	'x+.5, -y+.5, -z'
  3	'-x+.5, -y, z+.5'
  4	'x, y, z'
loop_
_atom_type_symbol
_atom_type_oxidation_number
Al3+	3
Ca2+	2
H1-	-1
loop_
_atom_site_label
_atom_site_type_symbol
_atom_site_symmetry_multiplicity
_atom_site_Wyckoff_symbol
_atom_site_fract_x
_atom_site_fract_y
_atom_site_fract_z
_atom_site_occupancy
_atom_site_attached_hydrogens
Ca1 Ca2+ 4 a 0.089 0.610 0.456 1. 0 
Al1 Al3+ 4 a 0.165 0.126 0.060 1. 0 
H1 H1- 4 a 0.242 0.374 0.234 1. 0 
H2 H1- 4 a 0.074 0.365 0.915 1. 0 
H3 H1- 4 a 0.416 0.140 0.427 1. 0 
H4 H1- 4 a 0.076 0.119 0.385 1. 0 
H5 H1- 4 a 0.257 0.138 0.744 1. 0 

#End of data_156314-ICSD


