data_190936-ICSD
#?2014 by Fachinformationszentrum Karlsruhe, and the U.S. Secretary of 
#Commerce on behalf of the United States.  All rights reserved.
_database_code_ICSD                190936
_audit_creation_date               2014/08/01
_chemical_name_systematic          'Magnesium Dihydrogen Silicate'
_chemical_formula_structural       'Mg (Si O4 H2)'
_chemical_formula_sum              'H2 Mg1 O4 Si1'
_publ_section_title
;
First principles prediction of a new high-pressure phase of dense 
hydrous magnesium silicates in the lower mantle
;
loop_
_citation_id
_citation_journal_abbrev
_citation_year
_citation_journal_volume
_citation_journal_issue
_citation_page_first
_citation_page_last
_citation_journal_id_ASTM
primary 'Geophysical Research Letters' 2013 40 17 4570 4573 GPRLAJ
_publ_author_name                  'Tsuchiya, Jun'
_cell_length_a                     4.534
_cell_length_b                     4.068
_cell_length_c                     2.691
_cell_angle_alpha                  90.
_cell_angle_beta                   90.
_cell_angle_gamma                  92.99
_cell_volume                       49.57
_cell_formula_units_Z              1
_symmetry_space_group_name_H-M     'P 1 1 2/m'
_symmetry_Int_Tables_number        10
loop_
_symmetry_equiv_pos_site_id
_symmetry_equiv_pos_as_xyz
  1	'-x, -y, z'
  2	'-x, -y, -z'
  3	'x, y, -z'
  4	'x, y, z'
loop_
_atom_type_symbol
_atom_type_oxidation_number
H1+	1
Mg2+	2
O2-	-2
Si4+	4
loop_
_atom_site_label
_atom_site_type_symbol
_atom_site_symmetry_multiplicity
_atom_site_Wyckoff_symbol
_atom_site_fract_x
_atom_site_fract_y
_atom_site_fract_z
_atom_site_occupancy
_atom_site_attached_hydrogens
Si1 Si4+ 1 a 0 0 0 1. 0 
Mg1 Mg2+ 1 h 0.5 0.5 0.5 1. 0 
O1 O2- 2 m 0.3270 0.2128 0 1. 0 
O2 O2- 2 n 0.8687 0.2477 0.5 1. 0 
H1 H1+ 1 c 0.5 0 0 1. 0 
H2 H1+ 1 e 0 0.5 0.5 1. 0 

#End of data_190936-ICSD


