data_169721-ICSD
#?2014 by Fachinformationszentrum Karlsruhe, and the U.S. Secretary of 
#Commerce on behalf of the United States.  All rights reserved.
_database_code_ICSD                169721
_audit_creation_date               2011/08/01
_chemical_name_systematic
;
Dialuminium Trioxide - Hp, Rh2o3(II)-type
;
_chemical_formula_structural       'Al2 O3'
_chemical_formula_sum              'Al2 O3'
_publ_section_title
;
First-principles calculation of kinetic barriers and metastability 
for the corundum-to-(Rh2 O3)(II) transition in Al2 O3
;
loop_
_citation_id
_citation_journal_abbrev
_citation_year
_citation_journal_volume
_citation_page_first
_citation_page_last
_citation_journal_id_ASTM
primary 'Journal of Physics: Condensed Matter' 2010 22 315403-1 315403-6 JCOMEL
_publ_author_name                  'Xu, Bin;Stokes, H.;Dong, Jian Jun'
_cell_length_a                     6.350
_cell_length_b                     4.353
_cell_length_c                     4.522
_cell_angle_alpha                  90.
_cell_angle_beta                   90.
_cell_angle_gamma                  90.
_cell_volume                       125
_cell_formula_units_Z              4
_symmetry_space_group_name_H-M     'P b c n'
_symmetry_Int_Tables_number        60
loop_
_symmetry_equiv_pos_site_id
_symmetry_equiv_pos_as_xyz
  1	'x, -y, z+.5'
  2	'-x+.5, y+.5, z'
  3	'x+.5, y+.5, -z+.5'
  4	'-x, -y, -z'
  5	'-x, y, -z+.5'
  6	'x+.5, -y+.5, -z'
  7	'-x+.5, -y+.5, z+.5'
  8	'x, y, z'
loop_
_atom_type_symbol
_atom_type_oxidation_number
Al3+	3
O2-	-2
loop_
_atom_site_label
_atom_site_type_symbol
_atom_site_symmetry_multiplicity
_atom_site_Wyckoff_symbol
_atom_site_fract_x
_atom_site_fract_y
_atom_site_fract_z
_atom_site_occupancy
_atom_site_attached_hydrogens
O1 O2- 8 d 0.846 0.607 0.103 1. 0 
O2 O2- 4 c 0 0.059 0.250 1. 0 
Al1 Al3+ 8 d 0.113 0.754 0.040 1. 0 

#End of data_169721-ICSD


