data_85745-ICSD
#?2014 by Fachinformationszentrum Karlsruhe, and the U.S. Secretary of 
#Commerce on behalf of the United States.  All rights reserved.
_database_code_ICSD                85745
_audit_creation_date               1999/11/30
_audit_update_record               2008/02/01
_chemical_name_systematic          'Dialuminium Silicate Oxide'
_chemical_formula_structural       'Al2 (Si O4) O'
_chemical_formula_sum              'Al2 O5 Si1'
_publ_section_title
;
Computer simulation of the structure, properties and stability of the 
Al2 Si O5 polymorphs: I. Ionic model
;
loop_
_citation_id
_citation_journal_abbrev
_citation_year
_citation_journal_volume
_citation_page_first
_citation_page_last
_citation_journal_id_ASTM
primary Geokhimiya 1998 5 456 474 GEOKAQ
2 'Geochemistry International' 1998 5 397 414 GCINAP
_publ_author_name
;
Urusov, V.S.;Oganov, A.P.;Eremin, N.N.
;
_cell_length_a                     9.764
_cell_length_b                     4.508
_cell_length_c                     9.671
_cell_angle_alpha                  90.
_cell_angle_beta                   142.19
_cell_angle_gamma                  90.
_cell_volume                       260.96
_cell_formula_units_Z              4
_symmetry_space_group_name_H-M     'C 1 2/c 1'
_symmetry_Int_Tables_number        15
loop_
_symmetry_equiv_pos_site_id
_symmetry_equiv_pos_as_xyz
  1	'x, -y, z+.5'
  2	'-x, -y, -z'
  3	'-x, y, -z+.5'
  4	'x, y, z'
  5	'x+.5, -y+.5, z+.5'
  6	'-x+.5, -y+.5, -z'
  7	'-x+.5, y+.5, -z+.5'
  8	'x+.5, y+.5, z'
loop_
_atom_type_symbol
_atom_type_oxidation_number
Al3+	3
O2-	-2
Si4+	4
loop_
_atom_site_label
_atom_site_type_symbol
_atom_site_symmetry_multiplicity
_atom_site_Wyckoff_symbol
_atom_site_fract_x
_atom_site_fract_y
_atom_site_fract_z
_atom_site_occupancy
_atom_site_attached_hydrogens
Al1 Al3+ 8 f 0.089 0.725 0.166 1. 0 
Si1 Si4+ 4 d 0.25 0.25 0.5 1. 0 
O1 O2- 8 f 0.2 0.501 0.109 1. 0 
O2 O2- 8 f 0.133 0 0.513 1. 0 
O3 O2- 4 e 0 0.447 0.25 1. 0 

#End of data_85745-ICSD


