data_249584-ICSD
#?2014 by Fachinformationszentrum Karlsruhe, and the U.S. Secretary of 
#Commerce on behalf of the United States.  All rights reserved.
_database_code_ICSD                249584
_audit_creation_date               2008/08/01
_audit_update_record               2013/02/01
_chemical_name_systematic
;
Magnesium Vanadium Molybdenum Oxide (2.5/1/1/8)
;
_chemical_formula_structural       'Mg2.5 (V Mo) O8'
_chemical_formula_sum              'Mg2.5 Mo1 O8 V1'
_publ_section_title
;
A spectroscopic and computational investigation of the 
vanadomolybdate local structure in the Lyonsite phase Mg2.5 V Mo O8
;
loop_
_citation_id
_citation_journal_abbrev
_citation_year
_citation_journal_volume
_citation_journal_issue
_citation_page_first
_citation_page_last
_citation_journal_id_ASTM
primary 'Inorganic Chemistry' 2007 46 16 6556 6564 INOCAJ
_publ_author_name
;
Smit, J.P.;Kim Hack-Sung;Saratovsky, I.;Stark, K.B.;Fitzgerald, 
G.;Zajac, G.W.;Gaillard, J.F.;Poeppelmeier, K.R.;Stair, P.C.
;
_cell_length_a                     10.1160
_cell_length_b                     10.3070
_cell_length_c                     17.4020
_cell_angle_alpha                  90.
_cell_angle_beta                   90.
_cell_angle_gamma                  90.
_cell_volume                       1814.43
_cell_formula_units_Z              12
_symmetry_space_group_name_H-M     'P 1'
_symmetry_Int_Tables_number        1
loop_
_symmetry_equiv_pos_site_id
_symmetry_equiv_pos_as_xyz
  1	'x, y, z'
loop_
_atom_type_symbol
_atom_type_oxidation_number
Mg2+	2
Mo6+	6
O2-	-2
V5+	5
loop_
_atom_site_label
_atom_site_type_symbol
_atom_site_symmetry_multiplicity
_atom_site_Wyckoff_symbol
_atom_site_fract_x
_atom_site_fract_y
_atom_site_fract_z
_atom_site_occupancy
_atom_site_attached_hydrogens
_atom_site_U_iso_or_equiv
Mg1 Mg2+ 1 a 0.33467 0.07294 0.02223 1.00 0 0.001 
Mg2 Mg2+ 1 a 0.85374 0.06995 0.02147 1.00 0 0.001 
Mg3 Mg2+ 1 a 0.33467 0.41686 0.02223 1.00 0 0.001 
Mg4 Mg2+ 1 a 0.85374 0.41985 0.02147 1.00 0 0.001 
Mg5 Mg2+ 1 a 0.08467 0.07040 0.46821 1.00 0 0.001 
Mg6 Mg2+ 1 a 0.60501 0.07306 0.46787 1.00 0 0.001 
Mg7 Mg2+ 1 a 0.08467 0.41940 0.46821 1.00 0 0.001 
Mg8 Mg2+ 1 a 0.60501 0.41674 0.46787 1.00 0 0.001 
Mg9 Mg2+ 1 a 0.33439 0.57306 0.52213 1.00 0 0.001 
Mg10 Mg2+ 1 a 0.85473 0.57040 0.52179 1.00 0 0.001 
Mg11 Mg2+ 1 a 0.33439 0.91674 0.52213 1.00 0 0.001 
Mg12 Mg2+ 1 a 0.85473 0.91940 0.52179 1.00 0 0.001 
Mg13 Mg2+ 1 a 0.08566 0.56995 0.96853 1.00 0 0.001 
Mg14 Mg2+ 1 a 0.60473 0.57294 0.96777 1.00 0 0.001 
Mg15 Mg2+ 1 a 0.08566 0.91985 0.96853 1.00 0 0.001 
Mg16 Mg2+ 1 a 0.60473 0.91686 0.96777 1.00 0 0.001 
Mg17 Mg2+ 1 a 0.91430 0.74490 0.24414 1.00 0 0.001 
Mg18 Mg2+ 1 a 0.18162 0.74490 0.24442 1.00 0 0.001 
Mg19 Mg2+ 1 a 0.64599 0.74490 0.24778 1.00 0 0.001 
Mg20 Mg2+ 1 a 0.29341 0.24490 0.74222 1.00 0 0.001 
Mg21 Mg2+ 1 a 0.75778 0.24490 0.74558 1.00 0 0.001 
Mg22 Mg2+ 1 a 0.02510 0.24490 0.74586 1.00 0 0.001 
Mg23 Mg2+ 1 a 0.33428 0.24490 0.19126 1.00 0 0.001 
Mg24 Mg2+ 1 a 0.85603 0.24490 0.19183 1.00 0 0.001 
Mg25 Mg2+ 1 a 0.08795 0.24490 0.29567 1.00 0 0.001 
Mg26 Mg2+ 1 a 0.60437 0.24490 0.30092 1.00 0 0.001 
Mg27 Mg2+ 1 a 0.33503 0.74490 0.68908 1.00 0 0.001 
Mg28 Mg2+ 1 a 0.85145 0.74490 0.69433 1.00 0 0.001 
Mg29 Mg2+ 1 a 0.08337 0.74490 0.79817 1.00 0 0.001 
Mg30 Mg2+ 1 a 0.60512 0.74490 0.79874 1.00 0 0.001 
V1 V5+ 1 a 0.82703 0.74490 0.05448 1.00 0 0.001 
V2 V5+ 1 a 0.08109 0.74490 0.43358 1.00 0 0.001 
V3 V5+ 1 a 0.85831 0.24490 0.55642 1.00 0 0.001 
V4 V5+ 1 a 0.11237 0.24490 0.93552 1.00 0 0.001 
V5 V5+ 1 a 0.08368 0.02014 0.15288 1.00 0 0.001 
V6 V5+ 1 a 0.08368 0.46966 0.15288 1.00 0 0.001 
V7 V5+ 1 a 0.83023 0.02174 0.33685 1.00 0 0.001 
V8 V5+ 1 a 0.83023 0.46806 0.33685 1.00 0 0.001 
V9 V5+ 1 a 0.10917 0.52174 0.65315 1.00 0 0.001 
V10 V5+ 1 a 0.10917 0.96806 0.65315 1.00 0 0.001 
V11 V5+ 1 a 0.85572 0.52014 0.83712 1.00 0 0.001 
V12 V5+ 1 a 0.85572 0.96966 0.83712 1.00 0 0.001 
O1 O2- 1 a 0.18258 0.11753 0.21196 1.00 0 0.001 
O2 O2- 1 a 0.68430 0.12563 0.20969 1.00 0 0.001 
O3 O2- 1 a 0.18258 0.37227 0.21196 1.00 0 0.001 
O4 O2- 1 a 0.68430 0.36417 0.20969 1.00 0 0.001 
O5 O2- 1 a 0.43778 0.12280 0.27802 1.00 0 0.001 
O6 O2- 1 a 0.92820 0.12083 0.28091 1.00 0 0.001 
O7 O2- 1 a 0.43778 0.36700 0.27802 1.00 0 0.001 
O8 O2- 1 a 0.92820 0.36897 0.28091 1.00 0 0.001 
O9 O2- 1 a 0.01120 0.62083 0.70909 1.00 0 0.001 
O10 O2- 1 a 0.50162 0.62280 0.71198 1.00 0 0.001 
O11 O2- 1 a 0.01120 0.86897 0.70909 1.00 0 0.001 
O12 O2- 1 a 0.50162 0.86700 0.71198 1.00 0 0.001 
O13 O2- 1 a 0.25510 0.62563 0.78031 1.00 0 0.001 
O14 O2- 1 a 0.75682 0.61753 0.77804 1.00 0 0.001 
O15 O2- 1 a 0.25510 0.86417 0.78031 1.00 0 0.001 
O16 O2- 1 a 0.75682 0.87227 0.77804 1.00 0 0.001 
O17 O2- 1 a 0.04826 0.61107 0.20010 1.00 0 0.001 
O18 O2- 1 a 0.53213 0.60686 0.19835 1.00 0 0.001 
O19 O2- 1 a 0.04826 0.87873 0.20010 1.00 0 0.001 
O20 O2- 1 a 0.53213 0.88294 0.19835 1.00 0 0.001 
O21 O2- 1 a 0.29723 0.60912 0.29032 1.00 0 0.001 
O22 O2- 1 a 0.78518 0.61038 0.29081 1.00 0 0.001 
O23 O2- 1 a 0.29723 0.88068 0.29032 1.00 0 0.001 
O24 O2- 1 a 0.78518 0.87942 0.29081 1.00 0 0.001 
O25 O2- 1 a 0.15422 0.11038 0.69919 1.00 0 0.001 
O26 O2- 1 a 0.64217 0.10912 0.69968 1.00 0 0.001 
O27 O2- 1 a 0.15422 0.37942 0.69919 1.00 0 0.001 
O28 O2- 1 a 0.64217 0.38068 0.69968 1.00 0 0.001 
O29 O2- 1 a 0.40727 0.10686 0.79165 1.00 0 0.001 
O30 O2- 1 a 0.89114 0.11107 0.78990 1.00 0 0.001 
O31 O2- 1 a 0.40727 0.38294 0.79165 1.00 0 0.001 
O32 O2- 1 a 0.89114 0.37873 0.78990 1.00 0 0.001 
O33 O2- 1 a 0.17803 0.51034 0.07235 1.00 0 0.001 
O34 O2- 1 a 0.67922 0.49817 0.06911 1.00 0 0.001 
O35 O2- 1 a 0.17803 0.97946 0.07235 1.00 0 0.001 
O36 O2- 1 a 0.67922 0.99163 0.06911 1.00 0 0.001 
O37 O2- 1 a 0.43363 0.50773 0.42122 1.00 0 0.001 
O38 O2- 1 a 0.92278 0.50089 0.41772 1.00 0 0.001 
O39 O2- 1 a 0.43363 0.98207 0.42122 1.00 0 0.001 
O40 O2- 1 a 0.92278 0.98891 0.41772 1.00 0 0.001 
O41 O2- 1 a 0.01662 0.00089 0.57228 1.00 0 0.001 
O42 O2- 1 a 0.50577 0.00773 0.56878 1.00 0 0.001 
O43 O2- 1 a 0.01662 0.48891 0.57228 1.00 0 0.001 
O44 O2- 1 a 0.50577 0.48207 0.56878 1.00 0 0.001 
O45 O2- 1 a 0.26018 -0.00183 0.92089 1.00 0 0.001 
O46 O2- 1 a 0.76137 0.01034 0.91765 1.00 0 0.001 
O47 O2- 1 a 0.26018 0.49163 0.92089 1.00 0 0.001 
O48 O2- 1 a 0.76137 0.47946 0.91765 1.00 0 0.001 
O49 O2- 1 a 0.43138 0.11690 0.12054 1.00 0 0.001 
O50 O2- 1 a 0.94499 0.10746 0.12357 1.00 0 0.001 
O51 O2- 1 a 0.43138 0.37290 0.12054 1.00 0 0.001 
O52 O2- 1 a 0.94499 0.38234 0.12357 1.00 0 0.001 
O53 O2- 1 a 0.18654 0.11644 0.36924 1.00 0 0.001 
O54 O2- 1 a 0.68957 0.10722 0.36638 1.00 0 0.001 
O55 O2- 1 a 0.18654 0.37336 0.36924 1.00 0 0.001 
O56 O2- 1 a 0.68957 0.38258 0.36638 1.00 0 0.001 
O57 O2- 1 a 0.24983 0.60722 0.62362 1.00 0 0.001 
O58 O2- 1 a 0.75286 0.61644 0.62076 1.00 0 0.001 
O59 O2- 1 a 0.24983 0.88258 0.62362 1.00 0 0.001 
O60 O2- 1 a 0.75286 0.87336 0.62076 1.00 0 0.001 
O61 O2- 1 a -0.00559 0.60746 0.86643 1.00 0 0.001 
O62 O2- 1 a 0.50802 0.61690 0.86946 1.00 0 0.001 
O63 O2- 1 a -0.00559 0.88234 0.86643 1.00 0 0.001 
O64 O2- 1 a 0.50802 0.87290 0.86946 1.00 0 0.001 
O65 O2- 1 a 0.24942 0.24490 -0.00122 1.00 0 0.001 
O66 O2- 1 a 0.75187 0.24490 0.00854 1.00 0 0.001 
O67 O2- 1 a -0.00471 0.24490 0.49383 1.00 0 0.001 
O68 O2- 1 a 0.50453 0.24490 0.47932 1.00 0 0.001 
O69 O2- 1 a 0.43487 0.74490 0.51068 1.00 0 0.001 
O70 O2- 1 a 0.94411 0.74490 0.49617 1.00 0 0.001 
O71 O2- 1 a 0.18753 0.74490 0.98146 1.00 0 0.001 
O72 O2- 1 a 0.68998 0.74490 0.99122 1.00 0 0.001 
O73 O2- 1 a 0.43188 0.60502 0.03215 1.00 0 0.001 
O74 O2- 1 a 0.92201 0.61138 0.03236 1.00 0 0.001 
O75 O2- 1 a 0.43188 0.88478 0.03215 1.00 0 0.001 
O76 O2- 1 a 0.92201 0.87842 0.03236 1.00 0 0.001 
O77 O2- 1 a 0.17753 0.60822 0.45221 1.00 0 0.001 
O78 O2- 1 a 0.67891 0.60753 0.46287 1.00 0 0.001 
O79 O2- 1 a 0.17753 0.88158 0.45221 1.00 0 0.001 
O80 O2- 1 a 0.67891 0.88227 0.46287 1.00 0 0.001 
O81 O2- 1 a 0.26049 0.10753 0.52713 1.00 0 0.001 
O82 O2- 1 a 0.76187 0.10822 0.53779 1.00 0 0.001 
O83 O2- 1 a 0.26049 0.38227 0.52713 1.00 0 0.001 
O84 O2- 1 a 0.76187 0.38158 0.53779 1.00 0 0.001 
O85 O2- 1 a 0.01739 0.11138 0.95764 1.00 0 0.001 
O86 O2- 1 a 0.50752 0.10502 0.95785 1.00 0 0.001 
O87 O2- 1 a 0.01739 0.37842 0.95764 1.00 0 0.001 
O88 O2- 1 a 0.50752 0.38478 0.95785 1.00 0 0.001 
O89 O2- 1 a 0.28740 0.74490 0.14670 1.00 0 0.001 
O90 O2- 1 a 0.78376 0.74490 0.15077 1.00 0 0.001 
O91 O2- 1 a 0.04702 0.74490 0.33724 1.00 0 0.001 
O92 O2- 1 a 0.53139 0.74490 0.34526 1.00 0 0.001 
O93 O2- 1 a 0.40801 0.24490 0.64474 1.00 0 0.001 
O94 O2- 1 a 0.89238 0.24490 0.65276 1.00 0 0.001 
O95 O2- 1 a 0.15564 0.24490 0.83923 1.00 0 0.001 
O96 O2- 1 a 0.65200 0.24490 0.84330 1.00 0 0.001 
Mo1 Mo6+ 1 a 0.32756 0.74490 0.04968 1.00 0 0.001 
Mo2 Mo6+ 1 a 0.57590 0.74490 0.44268 1.00 0 0.001 
Mo3 Mo6+ 1 a 0.36350 0.24490 0.54732 1.00 0 0.001 
Mo4 Mo6+ 1 a 0.61184 0.24490 0.94032 1.00 0 0.001 
Mo5 Mo6+ 1 a 0.57775 0.02682 0.15149 1.00 0 0.001 
Mo6 Mo6+ 1 a 0.57775 0.46298 0.15149 1.00 0 0.001 
Mo7 Mo6+ 1 a 0.33142 0.02406 0.33870 1.00 0 0.001 
Mo8 Mo6+ 1 a 0.33142 0.46574 0.33870 1.00 0 0.001 
Mo9 Mo6+ 1 a 0.60798 0.52406 0.65130 1.00 0 0.001 
Mo10 Mo6+ 1 a 0.60798 0.96574 0.65130 1.00 0 0.001 
Mo11 Mo6+ 1 a 0.36165 0.52682 0.83851 1.00 0 0.001 
Mo12 Mo6+ 1 a 0.36165 0.96298 0.83851 1.00 0 0.001 

#End of data_249584-ICSD


