data_86347-ICSD
#?2014 by Fachinformationszentrum Karlsruhe, and the U.S. Secretary of 
#Commerce on behalf of the United States.  All rights reserved.
_database_code_ICSD                86347
_audit_creation_date               1999/11/30
_chemical_name_systematic
;
Dimagnesium Tetraalumopentasilicate
;
_chemical_formula_structural       'Mg2 Si5 Al4 O18'
_chemical_formula_sum              'Al4 Mg2 O18 Si5'
_chemical_name_mineral             Cordierite
_publ_section_title
;
Static lattice energy minimization and lattice dynamics calculations 
on aluminosilicate materials
;
loop_
_citation_id
_citation_journal_abbrev
_citation_year
_citation_journal_volume
_citation_page_first
_citation_page_last
_citation_journal_id_ASTM
primary 'American Mineralogist' 1991 76 313 331 AMMIAY
_publ_author_name                  'Winkler, B.;Dove, M.T.;Leslie, M.'
_cell_length_a                     17.16739
_cell_length_b                     9.7517
_cell_length_c                     9.0661
_cell_angle_alpha                  90.
_cell_angle_beta                   90.
_cell_angle_gamma                  90.
_cell_volume                       1517.77
_cell_formula_units_Z              4
_symmetry_space_group_name_H-M     'C c c m'
_symmetry_Int_Tables_number        66
loop_
_symmetry_equiv_pos_site_id
_symmetry_equiv_pos_as_xyz
  1	'-x, y, z+.5'
  2	'x, -y, z+.5'
  3	'x, y, -z'
  4	'-x, -y, -z'
  5	'x, -y, -z+.5'
  6	'-x, y, -z+.5'
  7	'-x, -y, z'
  8	'x, y, z'
  9	'-x+.5, y+.5, z+.5'
 10	'x+.5, -y+.5, z+.5'
 11	'x+.5, y+.5, -z'
 12	'-x+.5, -y+.5, -z'
 13	'x+.5, -y+.5, -z+.5'
 14	'-x+.5, y+.5, -z+.5'
 15	'-x+.5, -y+.5, z'
 16	'x+.5, y+.5, z'
loop_
_atom_type_symbol
_atom_type_oxidation_number
Al3+	3
Mg2+	2
O2-	-2
Si4+	4
loop_
_atom_site_label
_atom_site_type_symbol
_atom_site_symmetry_multiplicity
_atom_site_Wyckoff_symbol
_atom_site_fract_x
_atom_site_fract_y
_atom_site_fract_z
_atom_site_occupancy
_atom_site_attached_hydrogens
Mg1 Mg2+ 8 g 0.3367 0 0.25 1. 0 
Al1 Al3+ 8 k 0.25 0.25 0.2537 1. 0 
Al2 Al3+ 8 l 0.0503 0.3031 0 1. 0 
Si1 Si4+ 4 b 0 0.5 0.25 1. 0 
Si2 Si4+ 8 l 0.1913 0.0766 0 1. 0 
Si3 Si4+ 8 l 0.1319 0.7645 0 1. 0 
O1 O2- 16 m 0.2466 0.8999 0.3539 1. 0 
O2 O2- 16 m 0.0637 0.5856 0.3483 1. 0 
O3 O2- 16 m 0.83 0.689 0.3538 1. 0 
O4 O2- 8 l 0.0405 0.7649 0 1. 0 
O5 O2- 8 l 0.1218 0.1829 0 1. 0 
O6 O2- 8 l 0.1713 -.0844 0 1. 0 

#End of data_86347-ICSD


