data_187055-ICSD
#?2014 by Fachinformationszentrum Karlsruhe, and the U.S. Secretary of 
#Commerce on behalf of the United States.  All rights reserved.
_database_code_ICSD                187055
_audit_creation_date               2013/08/01
_chemical_name_systematic
;
Gallium Aluminium Nitride (0.5/0.5/1)
;
_chemical_formula_structural       'Ga0.5 Al0.5 N'
_chemical_formula_sum              'Al0.5 Ga0.5 N1'
_publ_section_title
;
First-principles investigation of structural and electronic 
properties of the Bx Ga1-x N, Bx Al1-x N, Alx Ga1-x N and Bx Aly Ga1-
x-y N compounds
;
loop_
_citation_id
_citation_journal_abbrev
_citation_year
_citation_journal_volume
_citation_journal_issue
_citation_page_first
_citation_page_last
_citation_journal_id_ASTM
primary 'Acta Physica Polonica, A' 2012 122 4 748 753 ATPLB6
_publ_author_name
;
Djoudi, L.;Lachebi, A.;Merabet, B.;Abid, H.
;
_cell_length_a                     4.440
_cell_length_b                     4.440
_cell_length_c                     4.440
_cell_angle_alpha                  90.
_cell_angle_beta                   90.
_cell_angle_gamma                  90.
_cell_volume                       87.53
_cell_formula_units_Z              4
_symmetry_space_group_name_H-M     'P -4'
_symmetry_Int_Tables_number        81
loop_
_symmetry_equiv_pos_site_id
_symmetry_equiv_pos_as_xyz
  1	'-y, x, -z'
  2	'y, -x, -z'
  3	'-x, -y, z'
  4	'x, y, z'
loop_
_atom_type_symbol
_atom_type_oxidation_number
Al3+	3
Ga3+	3
N3-	-3
loop_
_atom_site_label
_atom_site_type_symbol
_atom_site_symmetry_multiplicity
_atom_site_Wyckoff_symbol
_atom_site_fract_x
_atom_site_fract_y
_atom_site_fract_z
_atom_site_occupancy
_atom_site_attached_hydrogens
Ga1 Ga3+ 1 a 0 0 0 1. 0 
Ga2 Ga3+ 1 c 0.5 0.5 0 1. 0 
Al1 Al3+ 2 g 0 0.5 0.5 1. 0 
N1 N3- 4 h 0.250 0.250 0.250 1. 0 

#End of data_187055-ICSD


