data_99082-ICSD
#?2014 by Fachinformationszentrum Karlsruhe, and the U.S. Secretary of 
#Commerce on behalf of the United States.  All rights reserved.
_database_code_ICSD                99082
_audit_creation_date               2005/04/01
_chemical_name_systematic          'Potassium Tetrahydridoaluminate'
_chemical_formula_structural       'K (Al H4)'
_chemical_formula_sum              'H4 Al1 K1'
_publ_section_title
;
Crystal structure of K Al H4 from first principle calculations
;
loop_
_citation_id
_citation_journal_abbrev
_citation_year
_citation_journal_volume
_citation_page_first
_citation_page_last
_citation_journal_id_ASTM
primary 'Journal of Alloys and Compounds' 2004 363 L7 L11 JALCEU
_publ_author_name
;
Vajeeston, P.;Ravindran, P.;Kjekshus, A.;Fjellvag, H.
;
_cell_length_a                     9.009
_cell_length_b                     5.767
_cell_length_c                     7.399
_cell_angle_alpha                  90
_cell_angle_beta                   90
_cell_angle_gamma                  90
_cell_volume                       384.41
_cell_formula_units_Z              4
_symmetry_space_group_name_H-M     'P n m a'
_symmetry_Int_Tables_number        62
loop_
_symmetry_equiv_pos_site_id
_symmetry_equiv_pos_as_xyz
  1	'x+.5, y, -z+.5'
  2	'x, -y+.5, z'
  3	'-x+.5, y+.5, z+.5'
  4	'-x, -y, -z'
  5	'-x+.5, -y, z+.5'
  6	'-x, y+.5, -z'
  7	'x+.5, -y+.5, -z+.5'
  8	'x, y, z'
loop_
_atom_type_symbol
_atom_type_oxidation_number
Al3+	3
H1-	-1
K1+	1
loop_
_atom_site_label
_atom_site_type_symbol
_atom_site_symmetry_multiplicity
_atom_site_Wyckoff_symbol
_atom_site_fract_x
_atom_site_fract_y
_atom_site_fract_z
_atom_site_occupancy
_atom_site_attached_hydrogens
K1 K1+ 4 c 0.1778 0.250 0.1621 1. 0 
Al1 Al3+ 4 c 0.5663 0.250 0.8184 1. 0 
H1 H1- 4 c 0.4034 0.250 0.9184 1. 0 
H2 H1- 4 c 0.7055 0.250 0.9623 1. 0 
H3 H1- 8 d 0.4194 0.9810 0.3127 1. 0 

#End of data_99082-ICSD


