data_168227-ICSD
#?2014 by Fachinformationszentrum Karlsruhe, and the U.S. Secretary of 
#Commerce on behalf of the United States.  All rights reserved.
_database_code_ICSD                168227
_audit_creation_date               2011/02/01
_chemical_name_systematic
;
Calcium Bis(tetrahydridoborate) - Gamma
;
_chemical_formula_structural       'Ca (B H4)2'
_chemical_formula_sum              'H8 B2 Ca1'
_publ_section_title
;
Calcium borohydride for hydrogen storage: a computational study of Ca 
(B H4)2 crystal structures and the Ca B2 Hx intermediate
;
loop_
_citation_id
_citation_journal_abbrev
_citation_year
_citation_journal_volume
_citation_page_first
_citation_page_last
_citation_journal_id_ASTM
primary 'Journal of Physical Chemistry C' 2010 114 9503 9509 JPCCCK
_publ_author_name                  'Frankcombe, T.J.'
_cell_length_a                     13.3825
_cell_length_b                     8.7627
_cell_length_c                     7.3712
_cell_angle_alpha                  90.
_cell_angle_beta                   90.
_cell_angle_gamma                  90.
_cell_volume                       864.4
_cell_formula_units_Z              8
_symmetry_space_group_name_H-M     'P b c a'
_symmetry_Int_Tables_number        61
loop_
_symmetry_equiv_pos_site_id
_symmetry_equiv_pos_as_xyz
  1	'x+.5, y, -z+.5'
  2	'x, -y+.5, z+.5'
  3	'-x+.5, y+.5, z'
  4	'-x, -y, -z'
  5	'-x+.5, -y, z+.5'
  6	'-x, y+.5, -z+.5'
  7	'x+.5, -y+.5, -z'
  8	'x, y, z'
loop_
_atom_type_symbol
_atom_type_oxidation_number
B3+	3
Ca2+	2
H1-	-1
loop_
_atom_site_label
_atom_site_type_symbol
_atom_site_symmetry_multiplicity
_atom_site_Wyckoff_symbol
_atom_site_fract_x
_atom_site_fract_y
_atom_site_fract_z
_atom_site_occupancy
_atom_site_attached_hydrogens
Ca1 Ca2+ 8 c 0.88521 0.43095 0.68387 1. 0 
B1 B3+ 8 c 0.72037 0.44839 0.45656 1. 0 
B2 B3+ 8 c 0.01476 0.68611 0.64765 1. 0 
H1 H1- 8 c 0.01235 0.59874 0.77690 1. 0 
H2 H1- 8 c 0.97488 0.80706 0.68554 1. 0 
H3 H1- 8 c 0.10313 0.70453 0.60792 1. 0 
H4 H1- 8 c 0.96915 0.63668 0.51545 1. 0 
H5 H1- 8 c 0.71517 0.38120 0.31066 1. 0 
H6 H1- 8 c 0.64332 0.51886 0.48980 1. 0 
H7 H1- 8 c 0.73040 0.35217 0.57549 1. 0 
H8 H1- 8 c 0.79001 0.53980 0.44887 1. 0 

#End of data_168227-ICSD


