data_162774-ICSD
#?2014 by Fachinformationszentrum Karlsruhe, and the U.S. Secretary of 
#Commerce on behalf of the United States.  All rights reserved.
_database_code_ICSD                162774
_audit_creation_date               2009/08/01
_chemical_name_systematic
;
Lithium Beryllium Trihydride - Hypothetical
;
_chemical_formula_structural       'Li Be H3'
_chemical_formula_sum              'H3 Be1 Li1'
_publ_section_title
;
Crystal structure prediction of Li Be H3 using ab initio total-energy 
calculations and evolutionary simulations
;
loop_
_citation_id
_citation_journal_abbrev
_citation_year
_citation_journal_volume
_citation_page_first
_citation_page_last
_citation_journal_id_ASTM
primary 'Journal of Chemical Physics' 2008 129 234105-1 234105-12 JCPSA6
_publ_author_name
;
Hu Chaohao;Oganov, A.R.;Wang, Y.W.;Zhou, H.-Y.;Lyakhov, A.;Hafner, J.
;
_cell_length_a                     9.1418
_cell_length_b                     3.8591
_cell_length_c                     5.1086
_cell_angle_alpha                  90.
_cell_angle_beta                   79.7890
_cell_angle_gamma                  90.
_cell_volume                       177.37
_cell_formula_units_Z              4
_symmetry_space_group_name_H-M     'C 1 2 1'
_symmetry_Int_Tables_number        5
loop_
_symmetry_equiv_pos_site_id
_symmetry_equiv_pos_as_xyz
  1	'-x, y, -z'
  2	'x, y, z'
  3	'-x+.5, y+.5, -z'
  4	'x+.5, y+.5, z'
loop_
_atom_type_symbol
_atom_type_oxidation_number
Be2+	2
H1-	-1
Li1+	1
loop_
_atom_site_label
_atom_site_type_symbol
_atom_site_symmetry_multiplicity
_atom_site_Wyckoff_symbol
_atom_site_fract_x
_atom_site_fract_y
_atom_site_fract_z
_atom_site_occupancy
_atom_site_attached_hydrogens
Li1 Li1+ 4 c 0.37596 0.43066 0.36667 1. 0 
Be1 Be2+ 4 c 0.27678 0.37721 0.85081 1. 0 
H1 H1- 4 c 0.42270 0.43980 0.72373 1. 0 
H2 H1- 4 c 0.17693 0.44047 0.67129 1. 0 
H3 H1- 4 c 0.23455 0.50391 0.11669 1. 0 

#End of data_162774-ICSD


