data_187572-ICSD
#?2014 by Fachinformationszentrum Karlsruhe, and the U.S. Secretary of 
#Commerce on behalf of the United States.  All rights reserved.
_database_code_ICSD                187572
_audit_creation_date               2013/08/01
_chemical_name_systematic
;
Sodium Potassium Aluminosilicate Hydroxide (3/1/12/8)
;
_chemical_formula_structural       'Na3 K (Al12 Si12 O40) (O H)8'
_chemical_formula_sum              'H8 Al12 K1 Na3 O48 Si12'
_chemical_name_mineral             Muscovite-paragonite
_publ_section_title
;
Computational study of the elastic behavior of the 2M1 muscovite-
paragonite series
;
loop_
_citation_id
_citation_journal_abbrev
_citation_year
_citation_journal_volume
_citation_journal_issue
_citation_page_first
_citation_page_last
_citation_journal_id_ASTM
primary 'American Mineralogist' 2013 98 4 651 664 AMMIAY
_publ_author_name
;
Hernandez-Haro, N.;Ortega-Castro, J.;Perez Del Valle, C.;Munoz-
Santiburcio, D.;Sainz-Diaz, C.I.;Hernandez-Laguna, A.
;
_cell_length_a                     10.30449
_cell_length_b                     8.93244
_cell_length_c                     19.37850
_cell_angle_alpha                  89.99930
_cell_angle_beta                   94.07859
_cell_angle_gamma                  90.00031
_cell_volume                       1779.16
_cell_formula_units_Z              2
_symmetry_space_group_name_H-M     'P 1'
_symmetry_Int_Tables_number        1
loop_
_symmetry_equiv_pos_site_id
_symmetry_equiv_pos_as_xyz
  1	'x, y, z'
loop_
_atom_type_symbol
_atom_type_oxidation_number
Al3+	3
H1+	1
K1+	1
Na1+	1
O2-	-2
Si4+	4
loop_
_atom_site_label
_atom_site_type_symbol
_atom_site_symmetry_multiplicity
_atom_site_Wyckoff_symbol
_atom_site_fract_x
_atom_site_fract_y
_atom_site_fract_z
_atom_site_occupancy
_atom_site_attached_hydrogens
H1 H1+ 1 a 0.43527 0.14715 0.07042 1.0000 0 
O1 O2- 1 a 0.13335 0.40031 0.17789 1.0000 0 
O2 O2- 1 a 0.39241 0.29021 0.16444 1.0000 0 
O3 O2- 1 a 0.43560 0.59144 0.17420 1.0000 0 
O4 O2- 1 a 0.47647 0.05798 0.05309 1.0000 0 
O5 O2- 1 a 0.44529 0.75002 0.05586 1.0000 0 
O6 O2- 1 a 0.47870 0.44494 0.05605 1.0000 0 
Si1 Si4+ 1 a 0.46666 0.75635 0.14003 1.0000 0 
Si2 Si4+ 1 a 0.48432 0.42805 0.14150 1.0000 0 
Al1 Al3+ 1 a 0.37204 0.58334 0.99937 1.0000 0 
H2 H1+ 1 a 0.06465 0.14705 0.42959 1.0000 0 
O7 O2- 1 a 0.36665 0.40028 0.32212 1.0000 0 
O8 O2- 1 a 0.10758 0.29020 0.33557 1.0000 0 
O9 O2- 1 a 0.06439 0.59143 0.32581 1.0000 0 
O10 O2- 1 a 0.02350 0.05791 0.44697 1.0000 0 
O11 O2- 1 a 0.05471 0.74999 0.44416 1.0000 0 
O12 O2- 1 a 0.02129 0.44490 0.44396 1.0000 0 
Si3 Si4+ 1 a 0.03333 0.75633 0.35999 1.0000 0 
Si4 Si4+ 1 a 0.01568 0.42804 0.35851 1.0000 0 
Al2 Al3+ 1 a 0.12796 0.58330 0.50064 1.0000 0 
Na1 Na1+ 1 a -0.00149 0.12123 0.25079 1.0000 0 
H3 H1+ 1 a 0.06860 0.85002 0.93334 1.0000 0 
O13 O2- 1 a 0.37072 0.60402 0.82347 1.0000 0 
O14 O2- 1 a 0.10610 0.70663 0.83467 1.0000 0 
O15 O2- 1 a 0.05799 0.40740 0.82737 1.0000 0 
O16 O2- 1 a 0.02554 0.94125 0.94701 1.0000 0 
O17 O2- 1 a 0.05098 0.24842 0.94482 1.0000 0 
O18 O2- 1 a 0.02068 0.55625 0.94393 1.0000 0 
Si5 Si4+ 1 a 0.02963 0.24281 0.86067 1.0000 0 
Si6 Si4+ 1 a 0.01245 0.57103 0.85832 1.0000 0 
Al3 Al3+ 1 a 0.12678 0.41602 0.00027 1.0000 0 
H4 H1+ 1 a 0.43137 0.85000 0.56670 1.0000 0 
O19 O2- 1 a 0.12927 0.60400 0.67655 1.0000 0 
O20 O2- 1 a 0.39390 0.70661 0.66535 1.0000 0 
O21 O2- 1 a 0.44201 0.40739 0.67265 1.0000 0 
O22 O2- 1 a 0.47443 0.94122 0.55303 1.0000 0 
O23 O2- 1 a 0.44900 0.24840 0.55519 1.0000 0 
O24 O2- 1 a 0.47931 0.55622 0.55608 1.0000 0 
Si7 Si4+ 1 a 0.47036 0.24279 0.63935 1.0000 0 
Si8 Si4+ 1 a 0.48754 0.57101 0.64169 1.0000 0 
Al4 Al3+ 1 a 0.37321 0.41600 0.49974 1.0000 0 
Na2 Na1+ 1 a 0.00147 0.87877 0.74922 1.0000 0 
H5 H1+ 1 a 0.17734 0.65877 0.05554 1.0000 0 
O25 O2- 1 a 0.36961 0.87665 0.17535 1.0000 0 
O26 O2- 1 a 0.12254 0.79703 0.16507 1.0000 0 
O27 O2- 1 a 0.18368 0.08557 0.17854 1.0000 0 
O28 O2- 1 a 0.22438 0.56473 0.05256 1.0000 0 
O29 O2- 1 a 0.19087 0.25003 0.05166 1.0000 0 
O30 O2- 1 a 0.22762 0.94121 0.05727 1.0000 0 
Al5 Al3+ 1 a 0.22634 0.25923 0.14174 1.0000 0 
Si9 Si4+ 1 a 0.22314 0.93075 0.14221 1.0000 0 
Al6 Al3+ 1 a 0.12366 0.08493 0.00147 1.0000 0 
H6 H1+ 1 a 0.32267 0.65876 0.44448 1.0000 0 
O31 O2- 1 a 0.13037 0.87665 0.32468 1.0000 0 
O32 O2- 1 a 0.37745 0.79702 0.33495 1.0000 0 
O33 O2- 1 a 0.31631 0.08554 0.32148 1.0000 0 
O34 O2- 1 a 0.27563 0.56471 0.44745 1.0000 0 
O35 O2- 1 a 0.30912 0.25001 0.44835 1.0000 0 
O36 O2- 1 a 0.27236 0.94119 0.44275 1.0000 0 
Al7 Al3+ 1 a 0.27366 0.25921 0.35827 1.0000 0 
Si10 Si4+ 1 a 0.27684 0.93073 0.35781 1.0000 0 
Al8 Al3+ 1 a 0.37630 0.08490 0.49856 1.0000 0 
Na3 Na1+ 1 a 0.25000 0.57686 0.25001 1.0000 0 
H7 H1+ 1 a 0.32274 0.33945 0.94531 1.0000 0 
O37 O2- 1 a 0.13193 0.12773 0.82556 1.0000 0 
O38 O2- 1 a 0.38061 0.20123 0.83691 1.0000 0 
O39 O2- 1 a 0.31300 0.91493 0.82231 1.0000 0 
O40 O2- 1 a 0.27491 0.43331 0.94698 1.0000 0 
O41 O2- 1 a 0.30673 0.75020 0.94880 1.0000 0 
O42 O2- 1 a 0.27197 0.06018 0.94426 1.0000 0 
Al9 Al3+ 1 a 0.27205 0.73981 0.85856 1.0000 0 
Si11 Si4+ 1 a 0.27725 0.06994 0.85953 1.0000 0 
Al10 Al3+ 1 a 0.37547 0.91494 0.99946 1.0000 0 
H8 H1+ 1 a 0.17725 0.33941 0.55469 1.0000 0 
O43 O2- 1 a 0.36805 0.12772 0.67446 1.0000 0 
O44 O2- 1 a 0.11938 0.20121 0.66312 1.0000 0 
O45 O2- 1 a 0.18700 0.91491 0.67772 1.0000 0 
O46 O2- 1 a 0.22508 0.43327 0.55304 1.0000 0 
O47 O2- 1 a 0.19328 0.75016 0.55122 1.0000 0 
O48 O2- 1 a 0.22800 0.06017 0.55577 1.0000 0 
Al11 Al3+ 1 a 0.22795 0.73978 0.64146 1.0000 0 
Si12 Si4+ 1 a 0.22274 0.06992 0.64050 1.0000 0 
Al12 Al3+ 1 a 0.12450 0.91489 0.50059 1.0000 0 
K1 K1+ 1 a 0.25000 0.39265 0.75001 1.0000 0 
H9 H1+ 1 a 0.93138 0.15001 0.06671 1.0000 0 
O49 O2- 1 a 0.62927 0.39601 0.17655 1.0000 0 
O50 O2- 1 a 0.89391 0.29339 0.16535 1.0000 0 
O51 O2- 1 a 0.94200 0.59261 0.17265 1.0000 0 
O52 O2- 1 a 0.97442 0.05879 0.05303 1.0000 0 
O53 O2- 1 a 0.94900 0.75161 0.05519 1.0000 0 
O54 O2- 1 a 0.97931 0.44379 0.05608 1.0000 0 
Si13 Si4+ 1 a 0.97036 0.75721 0.13934 1.0000 0 
Si14 Si4+ 1 a 0.98754 0.42899 0.14169 1.0000 0 
Al13 Al3+ 1 a 0.87321 0.58401 0.99975 1.0000 0 
H10 H1+ 1 a 0.56860 0.14998 0.43333 1.0000 0 
O55 O2- 1 a 0.87072 0.39599 0.32346 1.0000 0 
O56 O2- 1 a 0.60610 0.29338 0.33467 1.0000 0 
O57 O2- 1 a 0.55798 0.59260 0.32737 1.0000 0 
O58 O2- 1 a 0.52554 0.05876 0.44701 1.0000 0 
O59 O2- 1 a 0.55098 0.75159 0.44482 1.0000 0 
O60 O2- 1 a 0.52068 0.44376 0.44393 1.0000 0 
Si15 Si4+ 1 a 0.52963 0.75720 0.36067 1.0000 0 
Si16 Si4+ 1 a 0.51246 0.42897 0.35832 1.0000 0 
Al14 Al3+ 1 a 0.62678 0.58399 0.50027 1.0000 0 
Na4 Na1+ 1 a 0.50147 0.12124 0.24922 1.0000 0 
H11 H1+ 1 a 0.56464 0.85296 0.92959 1.0000 0 
O61 O2- 1 a 0.86665 0.59973 0.82212 1.0000 0 
O62 O2- 1 a 0.60758 0.70981 0.83557 1.0000 0 
O63 O2- 1 a 0.56439 0.40857 0.82581 1.0000 0 
O64 O2- 1 a 0.52350 0.94210 0.94697 1.0000 0 
O65 O2- 1 a 0.55471 0.25002 0.94416 1.0000 0 
O66 O2- 1 a 0.52129 0.55511 0.94396 1.0000 0 
Si17 Si4+ 1 a 0.53333 0.24367 0.85999 1.0000 0 
Si18 Si4+ 1 a 0.51568 0.57197 0.85851 1.0000 0 
Al15 Al3+ 1 a 0.62796 0.41671 0.00065 1.0000 0 
H12 H1+ 1 a 0.93528 0.85287 0.57042 1.0000 0 
O67 O2- 1 a 0.63335 0.59970 0.67789 1.0000 0 
O68 O2- 1 a 0.89241 0.70979 0.66443 1.0000 0 
O69 O2- 1 a 0.93560 0.40856 0.67420 1.0000 0 
O70 O2- 1 a 0.97647 0.94203 0.55309 1.0000 0 
O71 O2- 1 a 0.94529 0.24998 0.55586 1.0000 0 
O72 O2- 1 a 0.97871 0.55507 0.55605 1.0000 0 
Si19 Si4+ 1 a 0.96666 0.24365 0.64003 1.0000 0 
Si20 Si4+ 1 a 0.98432 0.57195 0.64150 1.0000 0 
Al16 Al3+ 1 a 0.87204 0.41667 0.49937 1.0000 0 
Na5 Na1+ 1 a 0.49851 0.87877 0.75079 1.0000 0 
H13 H1+ 1 a 0.67725 0.66061 0.05469 1.0000 0 
O73 O2- 1 a 0.86805 0.87228 0.17446 1.0000 0 
O74 O2- 1 a 0.61938 0.79880 0.16312 1.0000 0 
O75 O2- 1 a 0.68701 0.08509 0.17772 1.0000 0 
O76 O2- 1 a 0.72507 0.56674 0.05304 1.0000 0 
O77 O2- 1 a 0.69328 0.24985 0.05122 1.0000 0 
O78 O2- 1 a 0.72799 0.93984 0.05577 1.0000 0 
Al17 Al3+ 1 a 0.72795 0.26022 0.14146 1.0000 0 
Si21 Si4+ 1 a 0.72274 0.93008 0.14050 1.0000 0 
Al18 Al3+ 1 a 0.62450 0.08512 0.00059 1.0000 0 
H14 H1+ 1 a 0.82275 0.66056 0.44532 1.0000 0 
O79 O2- 1 a 0.63193 0.87228 0.32556 1.0000 0 
O80 O2- 1 a 0.88061 0.79877 0.33691 1.0000 0 
O81 O2- 1 a 0.81300 0.08507 0.32231 1.0000 0 
O82 O2- 1 a 0.77492 0.56670 0.44698 1.0000 0 
O83 O2- 1 a 0.80673 0.24981 0.44880 1.0000 0 
O84 O2- 1 a 0.77197 0.93983 0.44426 1.0000 0 
Al19 Al3+ 1 a 0.77205 0.26020 0.35856 1.0000 0 
Si22 Si4+ 1 a 0.77725 0.93007 0.35953 1.0000 0 
Al20 Al3+ 1 a 0.87547 0.08507 0.49945 1.0000 0 
K2 K1+ 1 a 0.75000 0.60735 0.25001 1.0000 0 
H15 H1+ 1 a 0.82268 0.34124 0.94448 1.0000 0 
O85 O2- 1 a 0.63037 0.12335 0.82468 1.0000 0 
O86 O2- 1 a 0.87745 0.20299 0.83495 1.0000 0 
O87 O2- 1 a 0.81631 0.91446 0.82148 1.0000 0 
O88 O2- 1 a 0.77563 0.43529 0.94746 1.0000 0 
O89 O2- 1 a 0.80911 0.75000 0.94835 1.0000 0 
O90 O2- 1 a 0.77236 0.05882 0.94275 1.0000 0 
Al21 Al3+ 1 a 0.77365 0.74080 0.85827 1.0000 0 
Si23 Si4+ 1 a 0.77685 0.06928 0.85781 1.0000 0 
Al22 Al3+ 1 a 0.87630 0.91511 0.99856 1.0000 0 
H16 H1+ 1 a 0.67733 0.34123 0.55554 1.0000 0 
O91 O2- 1 a 0.86961 0.12335 0.67535 1.0000 0 
O92 O2- 1 a 0.62254 0.20298 0.66507 1.0000 0 
O93 O2- 1 a 0.68368 0.91444 0.67854 1.0000 0 
O94 O2- 1 a 0.72438 0.43528 0.55256 1.0000 0 
O95 O2- 1 a 0.69087 0.74998 0.55166 1.0000 0 
O96 O2- 1 a 0.72762 0.05880 0.55727 1.0000 0 
Al23 Al3+ 1 a 0.72634 0.74078 0.64173 1.0000 0 
Si24 Si4+ 1 a 0.72314 0.06926 0.64221 1.0000 0 
Al24 Al3+ 1 a 0.62366 0.91508 0.50147 1.0000 0 
Na6 Na1+ 1 a 0.75000 0.42314 0.75001 1.0000 0 

#End of data_187572-ICSD


