data_171439-ICSD
#?2014 by Fachinformationszentrum Karlsruhe, and the U.S. Secretary of 
#Commerce on behalf of the United States.  All rights reserved.
_database_code_ICSD                171439
_audit_creation_date               2006/10/01
_chemical_name_systematic          'Aluminium Vanadate(V)'
_chemical_formula_structural       'Al V O4'
_chemical_formula_sum              'Al1 O4 V1'
_publ_section_title
;
Evaluation of 27.Al and 51.V electric field gradients and the crystal 
structure for aluminum orthovanadate (Al V O4) by density functional 
theory calculations
;
loop_
_citation_id
_citation_journal_abbrev
_citation_year
_citation_journal_volume
_citation_page_first
_citation_page_last
_citation_journal_id_ASTM
primary 'Journal of Physical Chemistry B' 2006 110 5975 5983 JPCBFK
_publ_author_name
;
Hansen, M.R.;Madsen, G.K.H.;Jakobsen, H.J.;Skibsted, J.
;
_cell_length_a                     6.538(2)
_cell_length_b                     7.756(3)
_cell_length_c                     9.131(3)
_cell_angle_alpha                  96.17(17)
_cell_angle_beta                   107.23(8)
_cell_angle_gamma                  101.40(9)
_cell_volume                       426.65
_cell_formula_units_Z              6
_symmetry_space_group_name_H-M     'P -1'
_symmetry_Int_Tables_number        2
loop_
_symmetry_equiv_pos_site_id
_symmetry_equiv_pos_as_xyz
  1	'-x, -y, -z'
  2	'x, y, z'
loop_
_atom_type_symbol
_atom_type_oxidation_number
Al3+	3
O2-	-2
V5+	5
loop_
_atom_site_label
_atom_site_type_symbol
_atom_site_symmetry_multiplicity
_atom_site_Wyckoff_symbol
_atom_site_fract_x
_atom_site_fract_y
_atom_site_fract_z
_atom_site_occupancy
_atom_site_attached_hydrogens
Al1 Al3+ 2 i 0.7491 0.6999 0.4091 1. 0 
Al2 Al3+ 2 i 0.4617 0.8830 0.2112 1. 0 
Al3 Al3+ 2 i 0.9618 0.3079 0.0075 1. 0 
V1 V5+ 2 i 0.0025 0.9964 0.2549 1. 0 
V2 V5+ 2 i 0.1966 0.6013 0.3456 1. 0 
V3 V5+ 2 i 0.5170 0.3001 0.1258 1. 0 
O1 O2- 2 i 0.6418 0.4918 0.2548 1. 0 
O2 O2- 2 i 0.2613 0.4337 0.4334 1. 0 
O3 O2- 2 i 0.0446 0.7006 0.4311 1. 0 
O4 O2- 2 i 0.1595 0.0958 0.4331 1. 0 
O5 O2- 2 i 0.4576 0.7453 0.3647 1. 0 
O6 O2- 2 i 0.7515 0.8622 0.2626 1. 0 
O7 O2- 2 i 0.5260 0.1191 0.2185 1. 0 
O8 O2- 2 i 0.3554 0.7253 0.0246 1. 0 
O9 O2- 2 i 0.2513 0.2952 0.0331 1. 0 
O10 O2- 2 i 0.0484 0.5242 0.1434 1. 0 
O11 O2- 2 i 0.1567 0.8692 0.1745 1. 0 
O12 O2- 2 i 0.9484 0.1524 0.1478 1. 0 

#End of data_171439-ICSD


