data_153024-ICSD
#?2014 by Fachinformationszentrum Karlsruhe, and the U.S. Secretary of 
#Commerce on behalf of the United States.  All rights reserved.
_database_code_ICSD                153024
_audit_creation_date               2006/10/01
_chemical_name_systematic          'Aluminium Vanadate'
_chemical_formula_structural       'Al (V O4)'
_chemical_formula_sum              'Al1 O4 V1'
_publ_section_title
;
Crystal structure and vibrational spectra of Al V O4. A DFT study
;
loop_
_citation_id
_citation_journal_abbrev
_citation_year
_citation_journal_volume
_citation_page_first
_citation_page_last
_citation_journal_id_ASTM
primary 'Journal of Physical Chemistry B' 2005 109 394 400 JPCBFK
_publ_author_name
;
Brazdova, V.;Ganduglia-Pirovano, M.V.;Sauer, J.
;
_cell_length_a                     6.600
_cell_length_b                     7.831
_cell_length_c                     9.248
_cell_angle_alpha                  96.20
_cell_angle_beta                   107.24
_cell_angle_gamma                  101.55
_cell_volume                       440.05
_cell_formula_units_Z              6
_symmetry_space_group_name_H-M     'P -1'
_symmetry_Int_Tables_number        2
loop_
_symmetry_equiv_pos_site_id
_symmetry_equiv_pos_as_xyz
  1	'-x, -y, -z'
  2	'x, y, z'
loop_
_atom_type_symbol
_atom_type_oxidation_number
Al3+	3
O2-	-2
V5+	5
loop_
_atom_site_label
_atom_site_type_symbol
_atom_site_symmetry_multiplicity
_atom_site_Wyckoff_symbol
_atom_site_fract_x
_atom_site_fract_y
_atom_site_fract_z
_atom_site_occupancy
_atom_site_attached_hydrogens
Al1 Al3+ 2 i 0.74876 0.69900 0.40740 1. 0 
Al2 Al3+ 2 i 0.46078 0.88231 0.20944 1. 0 
Al3 Al3+ 2 i 0.96312 0.30658 0.00745 1. 0 
V1 V5+ 2 i 0.99685 0.00424 0.74493 1. 0 
V2 V5+ 2 i 0.19556 0.60025 0.34260 1. 0 
V3 V5+ 2 i 0.51678 0.29922 0.12450 1. 0 
O1 O2- 2 i 0.64155 0.48978 0.25411 1. 0 
O2 O2- 2 i 0.25602 0.43673 0.43636 1. 0 
O3 O2- 2 i 0.04045 0.70137 0.42205 1. 0 
O4 O2- 2 i 0.15898 0.10058 0.43155 1. 0 
O5 O2- 2 i 0.45684 0.74194 0.35973 1. 0 
O6 O2- 2 i 0.75095 0.86522 0.26396 1. 0 
O7 O2- 2 i 0.52185 0.11686 0.21378 1. 0 
O8 O2- 2 i 0.15589 0.86776 0.17458 1. 0 
O9 O2- 2 i 0.35368 0.72829 0.02333 1. 0 
O10 O2- 2 i 0.25224 0.29613 0.03252 1. 0 
O11 O2- 2 i 0.95151 0.14930 0.14614 1. 0 
O12 O2- 2 i 0.05005 0.52211 0.14179 1. 0 

#End of data_153024-ICSD


