data_187570-ICSD
#?2014 by Fachinformationszentrum Karlsruhe, and the U.S. Secretary of 
#Commerce on behalf of the United States.  All rights reserved.
_database_code_ICSD                187570
_audit_creation_date               2013/08/01
_chemical_name_systematic
;
Sodium Potassium Aluminosilicate Hydroxide (1/3/12/8)
;
_chemical_formula_structural       'Na K3 (Al12 Si12 O40 (O H)8)'
_chemical_formula_sum              'H8 Al12 K3 Na1 O48 Si12'
_chemical_name_mineral             Muscovite-paragonite
_publ_section_title
;
Computational study of the elastic behavior of the 2M1 muscovite-
paragonite series
;
loop_
_citation_id
_citation_journal_abbrev
_citation_year
_citation_journal_volume
_citation_journal_issue
_citation_page_first
_citation_page_last
_citation_journal_id_ASTM
primary 'American Mineralogist' 2013 98 4 651 664 AMMIAY
_publ_author_name
;
Hernandez-Haro, N.;Ortega-Castro, J.;Perez Del Valle, C.;Munoz-
Santiburcio, D.;Sainz-Diaz, C.I.;Hernandez-Laguna, A.
;
_cell_length_a                     10.35126
_cell_length_b                     8.99431
_cell_length_c                     19.91729
_cell_angle_alpha                  89.99991
_cell_angle_beta                   95.54886
_cell_angle_gamma                  89.99991
_cell_volume                       1845.66
_cell_formula_units_Z              2
_symmetry_space_group_name_H-M     'P 1'
_symmetry_Int_Tables_number        1
loop_
_symmetry_equiv_pos_site_id
_symmetry_equiv_pos_as_xyz
  1	'x, y, z'
loop_
_atom_type_symbol
_atom_type_oxidation_number
Al3+	3
H1+	1
K1+	1
Na1+	1
O2-	-2
Si4+	4
loop_
_atom_site_label
_atom_site_type_symbol
_atom_site_symmetry_multiplicity
_atom_site_Wyckoff_symbol
_atom_site_fract_x
_atom_site_fract_y
_atom_site_fract_z
_atom_site_occupancy
_atom_site_attached_hydrogens
H1 H1+ 1 a 0.43628 0.14723 0.06642 1.0000 0 
O1 O2- 1 a 0.13626 0.39368 0.17277 1.0000 0 
O2 O2- 1 a 0.39844 0.29949 0.15963 1.0000 0 
O3 O2- 1 a 0.45107 0.59348 0.17022 1.0000 0 
O4 O2- 1 a 0.47790 0.05690 0.05223 1.0000 0 
O5 O2- 1 a 0.45121 0.75090 0.05403 1.0000 0 
O6 O2- 1 a 0.48352 0.44764 0.05511 1.0000 0 
Si1 Si4+ 1 a 0.47619 0.75582 0.13609 1.0000 0 
Si2 Si4+ 1 a 0.49321 0.43126 0.13847 1.0000 0 
Al1 Al3+ 1 a 0.37326 0.58366 0.99963 1.0000 0 
H2 H1+ 1 a 0.06370 0.14721 0.43357 1.0000 0 
O7 O2- 1 a 0.36374 0.39368 0.32724 1.0000 0 
O8 O2- 1 a 0.10156 0.29948 0.34038 1.0000 0 
O9 O2- 1 a 0.04893 0.59347 0.32978 1.0000 0 
O10 O2- 1 a 0.02209 0.05689 0.44777 1.0000 0 
O11 O2- 1 a 0.04878 0.75089 0.44598 1.0000 0 
O12 O2- 1 a 0.01647 0.44763 0.44490 1.0000 0 
Si3 Si4+ 1 a 0.02380 0.75581 0.36391 1.0000 0 
Si4 Si4+ 1 a 0.00679 0.43125 0.36154 1.0000 0 
Al2 Al3+ 1 a 0.12674 0.58365 0.50038 1.0000 0 
K1 K1+ 1 a 0.00207 0.09445 0.24963 1.0000 0 
H3 H1+ 1 a 0.06162 0.85372 0.93205 1.0000 0 
O13 O2- 1 a 0.36063 0.60123 0.82575 1.0000 0 
O14 O2- 1 a 0.10361 0.70170 0.84045 1.0000 0 
O15 O2- 1 a 0.05095 0.40737 0.82910 1.0000 0 
O16 O2- 1 a 0.02085 0.94319 0.94777 1.0000 0 
O17 O2- 1 a 0.05037 0.25005 0.94568 1.0000 0 
O18 O2- 1 a 0.01742 0.55273 0.94519 1.0000 0 
Si5 Si4+ 1 a 0.02594 0.24447 0.86362 1.0000 0 
Si6 Si4+ 1 a 0.00874 0.57022 0.86190 1.0000 0 
Al3 Al3+ 1 a 0.12737 0.41669 0.00056 1.0000 0 
H4 H1+ 1 a 0.43839 0.85372 0.56796 1.0000 0 
O19 O2- 1 a 0.13937 0.60123 0.67425 1.0000 0 
O20 O2- 1 a 0.39638 0.70169 0.65956 1.0000 0 
O21 O2- 1 a 0.44904 0.40736 0.67091 1.0000 0 
O22 O2- 1 a 0.47915 0.94318 0.55224 1.0000 0 
O23 O2- 1 a 0.44962 0.25004 0.55432 1.0000 0 
O24 O2- 1 a 0.48257 0.55274 0.55483 1.0000 0 
Si7 Si4+ 1 a 0.47406 0.24446 0.63638 1.0000 0 
Si8 Si4+ 1 a 0.49126 0.57022 0.63811 1.0000 0 
Al4 Al3+ 1 a 0.37263 0.41668 0.49945 1.0000 0 
K2 K1+ 1 a -0.00206 0.90556 0.75038 1.0000 0 
H5 H1+ 1 a 0.18018 0.65913 0.05338 1.0000 0 
O25 O2- 1 a 0.37414 0.86734 0.17004 1.0000 0 
O26 O2- 1 a 0.12520 0.80514 0.16037 1.0000 0 
O27 O2- 1 a 0.20676 0.08556 0.17325 1.0000 0 
O28 O2- 1 a 0.22788 0.56611 0.05137 1.0000 0 
O29 O2- 1 a 0.19302 0.24985 0.04977 1.0000 0 
O30 O2- 1 a 0.23005 0.93866 0.05381 1.0000 0 
Al5 Al3+ 1 a 0.23391 0.26171 0.13757 1.0000 0 
Si9 Si4+ 1 a 0.23040 0.93004 0.13645 1.0000 0 
Al6 Al3+ 1 a 0.12406 0.08548 0.00064 1.0000 0 
H6 H1+ 1 a 0.31981 0.65913 0.44662 1.0000 0 
O31 O2- 1 a 0.12586 0.86733 0.32996 1.0000 0 
O32 O2- 1 a 0.37480 0.80513 0.33963 1.0000 0 
O33 O2- 1 a 0.29323 0.08556 0.32676 1.0000 0 
O34 O2- 1 a 0.27212 0.56610 0.44863 1.0000 0 
O35 O2- 1 a 0.30698 0.24985 0.45024 1.0000 0 
O36 O2- 1 a 0.26995 0.93865 0.44620 1.0000 0 
Al7 Al3+ 1 a 0.26609 0.26170 0.36244 1.0000 0 
Si10 Si4+ 1 a 0.26960 0.93004 0.36355 1.0000 0 
Al8 Al3+ 1 a 0.37594 0.08547 0.49936 1.0000 0 
K3 K1+ 1 a 0.25000 0.60568 0.25000 1.0000 0 
H7 H1+ 1 a 0.31942 0.34225 0.94565 1.0000 0 
O37 O2- 1 a 0.12485 0.12967 0.82969 1.0000 0 
O38 O2- 1 a 0.37279 0.19724 0.83855 1.0000 0 
O39 O2- 1 a 0.29688 0.91434 0.82620 1.0000 0 
O40 O2- 1 a 0.27230 0.43529 0.94884 1.0000 0 
O41 O2- 1 a 0.30928 0.74982 0.94959 1.0000 0 
O42 O2- 1 a 0.27012 0.06019 0.94518 1.0000 0 
Al9 Al3+ 1 a 0.26786 0.73887 0.86190 1.0000 0 
Si11 Si4+ 1 a 0.26975 0.06989 0.86241 1.0000 0 
Al10 Al3+ 1 a 0.37647 0.91462 0.99873 1.0000 0 
H8 H1+ 1 a 0.18057 0.34225 0.55435 1.0000 0 
O43 O2- 1 a 0.37515 0.12966 0.67031 1.0000 0 
O44 O2- 1 a 0.12721 0.19723 0.66145 1.0000 0 
O45 O2- 1 a 0.20311 0.91433 0.67381 1.0000 0 
O46 O2- 1 a 0.22769 0.43529 0.55117 1.0000 0 
O47 O2- 1 a 0.19072 0.74981 0.55041 1.0000 0 
O48 O2- 1 a 0.22988 0.06018 0.55482 1.0000 0 
Al11 Al3+ 1 a 0.23213 0.73885 0.63810 1.0000 0 
Si12 Si4+ 1 a 0.23024 0.06988 0.63759 1.0000 0 
Al12 Al3+ 1 a 0.12353 0.91461 0.50127 1.0000 0 
Na1 Na1+ 1 a 0.25001 0.43300 0.75000 1.0000 0 
H9 H1+ 1 a 0.93838 0.14629 0.06796 1.0000 0 
O49 O2- 1 a 0.63937 0.39878 0.17425 1.0000 0 
O50 O2- 1 a 0.89638 0.29831 0.15956 1.0000 0 
O51 O2- 1 a 0.94904 0.59264 0.17091 1.0000 0 
O52 O2- 1 a 0.97914 0.05682 0.05224 1.0000 0 
O53 O2- 1 a 0.94962 0.74996 0.05433 1.0000 0 
O54 O2- 1 a 0.98257 0.44727 0.05483 1.0000 0 
Si13 Si4+ 1 a 0.97406 0.75554 0.13638 1.0000 0 
Si14 Si4+ 1 a 0.99125 0.42979 0.13811 1.0000 0 
Al13 Al3+ 1 a 0.87263 0.58333 0.99945 1.0000 0 
H10 H1+ 1 a 0.56162 0.14628 0.43205 1.0000 0 
O55 O2- 1 a 0.86063 0.39877 0.32575 1.0000 0 
O56 O2- 1 a 0.60361 0.29830 0.34045 1.0000 0 
O57 O2- 1 a 0.55095 0.59264 0.32910 1.0000 0 
O58 O2- 1 a 0.52085 0.05681 0.44776 1.0000 0 
O59 O2- 1 a 0.55038 0.74996 0.44568 1.0000 0 
O60 O2- 1 a 0.51743 0.44727 0.44519 1.0000 0 
Si15 Si4+ 1 a 0.52594 0.75553 0.36363 1.0000 0 
Si16 Si4+ 1 a 0.50874 0.42978 0.36190 1.0000 0 
Al14 Al3+ 1 a 0.62737 0.58332 0.50056 1.0000 0 
K4 K1+ 1 a 0.49794 0.09445 0.25038 1.0000 0 
H11 H1+ 1 a 0.56370 0.85280 0.93356 1.0000 0 
O61 O2- 1 a 0.86373 0.60633 0.82724 1.0000 0 
O62 O2- 1 a 0.60156 0.70053 0.84038 1.0000 0 
O63 O2- 1 a 0.54892 0.40653 0.82978 1.0000 0 
O64 O2- 1 a 0.52209 0.94312 0.94777 1.0000 0 
O65 O2- 1 a 0.54878 0.24912 0.94598 1.0000 0 
O66 O2- 1 a 0.51647 0.55238 0.94490 1.0000 0 
Si17 Si4+ 1 a 0.52380 0.24420 0.86391 1.0000 0 
Si18 Si4+ 1 a 0.50679 0.56875 0.86154 1.0000 0 
Al15 Al3+ 1 a 0.62673 0.41637 0.00038 1.0000 0 
H12 H1+ 1 a 0.93629 0.85278 0.56642 1.0000 0 
O67 O2- 1 a 0.63626 0.60632 0.67277 1.0000 0 
O68 O2- 1 a 0.89844 0.70051 0.65963 1.0000 0 
O69 O2- 1 a 0.95107 0.40652 0.67022 1.0000 0 
O70 O2- 1 a 0.97791 0.94311 0.55223 1.0000 0 
O71 O2- 1 a 0.95121 0.24911 0.55403 1.0000 0 
O72 O2- 1 a 0.98353 0.55236 0.55511 1.0000 0 
Si19 Si4+ 1 a 0.97620 0.24419 0.63609 1.0000 0 
Si20 Si4+ 1 a 0.99321 0.56874 0.63847 1.0000 0 
Al16 Al3+ 1 a 0.87326 0.41635 0.49963 1.0000 0 
K5 K1+ 1 a 0.50206 0.90555 0.74963 1.0000 0 
H13 H1+ 1 a 0.68057 0.65777 0.05435 1.0000 0 
O73 O2- 1 a 0.87515 0.87035 0.17031 1.0000 0 
O74 O2- 1 a 0.62721 0.80277 0.16145 1.0000 0 
O75 O2- 1 a 0.70311 0.08567 0.17381 1.0000 0 
O76 O2- 1 a 0.72769 0.56473 0.05117 1.0000 0 
O77 O2- 1 a 0.69071 0.25020 0.05041 1.0000 0 
O78 O2- 1 a 0.72987 0.93983 0.05482 1.0000 0 
Al17 Al3+ 1 a 0.73213 0.26115 0.13810 1.0000 0 
Si21 Si4+ 1 a 0.73024 0.93012 0.13760 1.0000 0 
Al18 Al3+ 1 a 0.62353 0.08540 0.00127 1.0000 0 
H14 H1+ 1 a 0.81943 0.65775 0.44565 1.0000 0 
O79 O2- 1 a 0.62485 0.87034 0.32969 1.0000 0 
O80 O2- 1 a 0.87279 0.80277 0.33855 1.0000 0 
O81 O2- 1 a 0.79688 0.08567 0.32620 1.0000 0 
O82 O2- 1 a 0.77230 0.56471 0.44884 1.0000 0 
O83 O2- 1 a 0.80928 0.25019 0.44960 1.0000 0 
O84 O2- 1 a 0.77012 0.93981 0.44518 1.0000 0 
Al19 Al3+ 1 a 0.76786 0.26115 0.36190 1.0000 0 
Si22 Si4+ 1 a 0.76976 0.93011 0.36241 1.0000 0 
Al20 Al3+ 1 a 0.87647 0.08538 0.49873 1.0000 0 
Na2 Na1+ 1 a 0.75001 0.56700 0.24999 1.0000 0 
H15 H1+ 1 a 0.81980 0.34089 0.94662 1.0000 0 
O85 O2- 1 a 0.62586 0.13268 0.82996 1.0000 0 
O86 O2- 1 a 0.87480 0.19487 0.83964 1.0000 0 
O87 O2- 1 a 0.79323 0.91445 0.82676 1.0000 0 
O88 O2- 1 a 0.77211 0.43392 0.94864 1.0000 0 
O89 O2- 1 a 0.80698 0.75016 0.95024 1.0000 0 
O90 O2- 1 a 0.76995 0.06136 0.94620 1.0000 0 
Al21 Al3+ 1 a 0.76609 0.73831 0.86244 1.0000 0 
Si23 Si4+ 1 a 0.76960 0.06997 0.86355 1.0000 0 
Al22 Al3+ 1 a 0.87593 0.91453 0.99936 1.0000 0 
H16 H1+ 1 a 0.68019 0.34088 0.55339 1.0000 0 
O91 O2- 1 a 0.87414 0.13266 0.67004 1.0000 0 
O92 O2- 1 a 0.62520 0.19487 0.66037 1.0000 0 
O93 O2- 1 a 0.70677 0.91444 0.67325 1.0000 0 
O94 O2- 1 a 0.72788 0.43390 0.55137 1.0000 0 
O95 O2- 1 a 0.69302 0.75015 0.54977 1.0000 0 
O96 O2- 1 a 0.73005 0.06134 0.55381 1.0000 0 
Al23 Al3+ 1 a 0.73391 0.73830 0.63757 1.0000 0 
Si24 Si4+ 1 a 0.73040 0.06996 0.63645 1.0000 0 
Al24 Al3+ 1 a 0.62406 0.91452 0.50064 1.0000 0 
K6 K1+ 1 a 0.75000 0.39433 0.75000 1.0000 0 

#End of data_187570-ICSD


