data_167518-ICSD
#?2014 by Fachinformationszentrum Karlsruhe, and the U.S. Secretary of 
#Commerce on behalf of the United States.  All rights reserved.
_database_code_ICSD                167518
_audit_creation_date               2011/02/01
_chemical_name_systematic          'Lithium Indium Germanate'
_chemical_formula_structural       'Li In (Ge O4)'
_chemical_formula_sum              'Ge1 In1 Li1 O4'
_publ_section_title
;
Ab initio prediction for the ionic conduction of lithium in Li In Si 
O4 and Li In Ge O4
;
loop_
_citation_id
_citation_journal_abbrev
_citation_year
_citation_journal_volume
_citation_page_first
_citation_page_last
_citation_journal_id_ASTM
primary 'Solid State Communications' 2010 150 693 696 SSCOA4
_publ_author_name
;
Rajkumar, T.;Nakayama, M.;Nogami, M.
;
_cell_length_a                     5.065
_cell_length_b                     10.897
_cell_length_c                     6.168
_cell_angle_alpha                  90.
_cell_angle_beta                   90.
_cell_angle_gamma                  90.
_cell_volume                       340.43
_cell_formula_units_Z              4
_symmetry_space_group_name_H-M     'P b n m'
_symmetry_Int_Tables_number        62
loop_
_symmetry_equiv_pos_site_id
_symmetry_equiv_pos_as_xyz
  1	'-x+.5, y+.5, z'
  2	'x, y, -z+.5'
  3	'x+.5, -y+.5, z+.5'
  4	'-x, -y, -z'
  5	'x+.5, -y+.5, -z'
  6	'-x, -y, z+.5'
  7	'-x+.5, y+.5, -z+.5'
  8	'x, y, z'
loop_
_atom_type_symbol
_atom_type_oxidation_number
Ge4+	4
In3+	3
Li1+	1
O2-	-2
loop_
_atom_site_label
_atom_site_type_symbol
_atom_site_symmetry_multiplicity
_atom_site_Wyckoff_symbol
_atom_site_fract_x
_atom_site_fract_y
_atom_site_fract_z
_atom_site_occupancy
_atom_site_attached_hydrogens
Li1 Li1+ 4 a 0 0 0 1. 0 
In1 In3+ 4 c 0.993 0.272 0.25 1. 0 
Ge1 Ge4+ 4 c 0.443 0.087 0.25 1. 0 
O1 O2- 4 c 0.787 0.094 0.25 1. 0 
O2 O2- 4 c 0.210 0.441 0.25 1. 0 
O3 O2- 8 d 0.274 0.167 0.032 1. 0 

#End of data_167518-ICSD


