data_159898-ICSD
#?2014 by Fachinformationszentrum Karlsruhe, and the U.S. Secretary of 
#Commerce on behalf of the United States.  All rights reserved.
_database_code_ICSD                159898
_audit_creation_date               2008/08/01
_chemical_name_systematic          'Sodium Magnesium Hydride'
_chemical_formula_structural       'Na Mg H3'
_chemical_formula_sum              'H3 Mg1 Na1'
_publ_section_title
;
Structure and dynamics of perovskite hydrides A Mg H3 (A= Na, K, Rb) 
in relation to the corresponding fluorides: a first-principles study
;
loop_
_citation_id
_citation_journal_abbrev
_citation_year
_citation_journal_volume
_citation_page_first
_citation_page_last
_citation_journal_id_ASTM
primary 'Physical Review, Serie 3. B - Condensed Matter (18,1978-)'
 2007 76 214118-1 214118-7 PRBMDO
2 'Materials Research Bulletin' 2000 35 545 549 MRBUAC
_publ_author_name
;
Fornari, M.;Subedi, A.;Singh, D.-J.
;
_cell_length_a                     5.4634
_cell_length_b                     7.7030
_cell_length_c                     5.4108
_cell_angle_alpha                  90.
_cell_angle_beta                   90.
_cell_angle_gamma                  90.
_cell_volume                       227.71
_cell_formula_units_Z              4
_symmetry_space_group_name_H-M     'P n m a'
_symmetry_Int_Tables_number        62
loop_
_symmetry_equiv_pos_site_id
_symmetry_equiv_pos_as_xyz
  1	'x+.5, y, -z+.5'
  2	'x, -y+.5, z'
  3	'-x+.5, y+.5, z+.5'
  4	'-x, -y, -z'
  5	'-x+.5, -y, z+.5'
  6	'-x, y+.5, -z'
  7	'x+.5, -y+.5, -z+.5'
  8	'x, y, z'
loop_
_atom_type_symbol
_atom_type_oxidation_number
H1-	-1
Mg2+	2
Na1+	1
loop_
_atom_site_label
_atom_site_type_symbol
_atom_site_symmetry_multiplicity
_atom_site_Wyckoff_symbol
_atom_site_fract_x
_atom_site_fract_y
_atom_site_fract_z
_atom_site_occupancy
_atom_site_attached_hydrogens
Na1 Na1+ 4 c 0.036 0.250 0.993 1. 0 
Mg1 Mg2+ 4 b 0 0 0.5 1. 0 
H1 H1- 4 c 0.466 0.250 0.090 1. 0 
H2 H1- 8 d 0.295 0.048 0.702 1. 0 

#End of data_159898-ICSD


