data_81138-ICSD
#?2014 by Fachinformationszentrum Karlsruhe, and the U.S. Secretary of 
#Commerce on behalf of the United States.  All rights reserved.
_database_code_ICSD                81138
_audit_creation_date               1997/05/13
_audit_update_record               1999/01/19
_chemical_name_systematic          'Magnesium Catena-silicate'
_chemical_formula_structural       'Mg (Si O3)'
_chemical_formula_sum              'Mg1 O3 Si1'
_chemical_name_mineral             'Clinoenstatite HP'
_publ_section_title
;
Ab initio study of Mg Si O3 C2/c enstatite
;
loop_
_citation_id
_citation_journal_abbrev
_citation_year
_citation_journal_volume
_citation_page_first
_citation_page_last
_citation_journal_id_ASTM
primary 'Physics and Chemistry of Minerals' 1995 22 453 460 PCMIDU
_publ_author_name
;
Wentzcovitch, R.M.;Hugh-Jones, D.A.;Angel, R.J.;Price, G.D.
;
_cell_length_a                     9.12(1)
_cell_length_b                     8.19(1)
_cell_length_c                     4.904(5)
_cell_angle_alpha                  90.
_cell_angle_beta                   101.3(2)
_cell_angle_gamma                  90.
_cell_volume                       359.19
_cell_formula_units_Z              8
_symmetry_space_group_name_H-M     'C 1 2/c 1'
_symmetry_Int_Tables_number        15
loop_
_symmetry_equiv_pos_site_id
_symmetry_equiv_pos_as_xyz
  1	'x, -y, z+.5'
  2	'-x, -y, -z'
  3	'-x, y, -z+.5'
  4	'x, y, z'
  5	'x+.5, -y+.5, z+.5'
  6	'-x+.5, -y+.5, -z'
  7	'-x+.5, y+.5, -z+.5'
  8	'x+.5, y+.5, z'
loop_
_atom_type_symbol
_atom_type_oxidation_number
Mg2+	2
O2-	-2
Si4+	4
loop_
_atom_site_label
_atom_site_type_symbol
_atom_site_symmetry_multiplicity
_atom_site_Wyckoff_symbol
_atom_site_fract_x
_atom_site_fract_y
_atom_site_fract_z
_atom_site_occupancy
_atom_site_attached_hydrogens
Mg1 Mg2+ 4 e 0 0.912(1) 0.25 1. 0 
Mg2 Mg2+ 4 e 0 0.277(1) 0.25 1. 0 
Si1 Si4+ 8 f 0.2987(5) 0.0959(5) 0.2137(5) 1. 0 
O1 O2- 8 f 0.121(1) 0.0953(5) 0.133(1) 1. 0 
O2 O2- 8 f 0.378(2) 0.2474(5) 0.377(1) 1. 0 
O3 O2- 8 f 0.356(5) 0.061(1) 0.917(1) 1. 0 

#End of data_81138-ICSD


