data_97909-ICSD
#?2014 by Fachinformationszentrum Karlsruhe, and the U.S. Secretary of 
#Commerce on behalf of the United States.  All rights reserved.
_database_code_ICSD                97909
_audit_creation_date               2004/10/01
_chemical_name_systematic          'Lithium Tecto-alumosilicate'
_chemical_formula_structural       'Li (Al Si O4)'
_chemical_formula_sum              'Al1 Li1 O4 Si1'
_chemical_name_mineral             'Zeolite Li-ABW (dehydrated)'
_publ_section_title
;
The role of extra-framework cations on the structure of dehydrated Li-
ABW. A computer simulation study
;
loop_
_citation_id
_citation_journal_abbrev
_citation_year
_citation_journal_volume
_citation_page_first
_citation_page_last
_citation_journal_id_ASTM
primary 'Microporous and Mesoporous Materials' 2003 57 73 81 MIMMFJ
_publ_author_name                  'Ceriani, C.;Fois, E.;Gamba, A.'
_cell_length_a                     9.938
_cell_length_b                     6.569
_cell_length_c                     4.948
_cell_angle_alpha                  90
_cell_angle_beta                   90
_cell_angle_gamma                  90
_cell_volume                       323.02
_cell_formula_units_Z              4
_symmetry_space_group_name_H-M     'P n a 21'
_symmetry_Int_Tables_number        33
loop_
_symmetry_equiv_pos_site_id
_symmetry_equiv_pos_as_xyz
  1	'x+.5, -y+.5, z'
  2	'-x+.5, y+.5, z+.5'
  3	'-x, -y, z+.5'
  4	'x, y, z'
loop_
_atom_type_symbol
_atom_type_oxidation_number
Al3+	3
Li1+	1
O2-	-2
Si4+	4
loop_
_atom_site_label
_atom_site_type_symbol
_atom_site_symmetry_multiplicity
_atom_site_Wyckoff_symbol
_atom_site_fract_x
_atom_site_fract_y
_atom_site_fract_z
_atom_site_occupancy
_atom_site_attached_hydrogens
Li1 Li1+ 4 a 0.1381(2) 0.5210(2) 0.2412(3) 1. 0 
Al1 Al3+ 4 a 0.1730(1) 0.0154(2) 0.2495(3) 1. 0 
Si1 Si4+ 4 a 0.4067(2) 0.2803(2) 0.2498(3) 1. 0 
O1 O2- 4 a 0.0663(3) 0.2263(3) 0.1846(4) 1. 0 
O2 O2- 4 a 0.3408(2) 0.0682(4) 0.1432(5) 1. 0 
O3 O2- 4 a 0.1680(3) -0.0310(5) 0.6026(4) 1. 0 
O4 O2- 4 a 0.1224(1) 0.7931(2) 0.0747(3) 1. 0 

#End of data_97909-ICSD


