data_181325-ICSD
#?2014 by Fachinformationszentrum Karlsruhe, and the U.S. Secretary of 
#Commerce on behalf of the United States.  All rights reserved.
_database_code_ICSD                181325
_audit_creation_date               2012/02/01
_chemical_name_systematic          'Dilithium Magnesium Tetrahydride'
_chemical_formula_structural       'Li2 Mg H4'
_chemical_formula_sum              'H4 Li2 Mg1'
_publ_section_title
;
Ab initio investigation of structures, electronic and thermodynamic 
properties for Li - Mg - H ternary system
;
loop_
_citation_id
_citation_journal_abbrev
_citation_year
_citation_journal_volume
_citation_journal_issue
_citation_page_first
_citation_page_last
_citation_journal_id_ASTM
primary 'Journal of Alloys and Compounds' 2011 509 32 8228 8234 JALCEU
_publ_author_name
;
Li Dai Xin;Zhang Tian Ran;Yang Si Qi;Tao Zhan Liang;Chen Jun
;
_cell_length_a                     4.8968
_cell_length_b                     9.2532
_cell_length_c                     2.9185
_cell_angle_alpha                  90.
_cell_angle_beta                   90.
_cell_angle_gamma                  90.
_cell_volume                       132.24
_cell_formula_units_Z              2
_symmetry_space_group_name_H-M     'P b a m'
_symmetry_Int_Tables_number        55
loop_
_symmetry_equiv_pos_site_id
_symmetry_equiv_pos_as_xyz
  1	'x+.5, -y+.5, z'
  2	'-x+.5, y+.5, z'
  3	'x, y, -z'
  4	'-x, -y, -z'
  5	'-x+.5, y+.5, -z'
  6	'x+.5, -y+.5, -z'
  7	'-x, -y, z'
  8	'x, y, z'
loop_
_atom_type_symbol
_atom_type_oxidation_number
H1-	-1
Li1+	1
Mg2+	2
loop_
_atom_site_label
_atom_site_type_symbol
_atom_site_symmetry_multiplicity
_atom_site_Wyckoff_symbol
_atom_site_fract_x
_atom_site_fract_y
_atom_site_fract_z
_atom_site_occupancy
_atom_site_attached_hydrogens
Li1 Li1+ 4 h 0.4821 0.2096 0.5 1. 0 
Mg1 Mg2+ 2 a 0 0 0 1. 0 
H1 H1- 4 h 0.2078 0.9136 0.5 1. 0 
H2 H1- 4 g 0.2183 0.1776 0 1. 0 

#End of data_181325-ICSD


