data_159433-ICSD
#?2014 by Fachinformationszentrum Karlsruhe, and the U.S. Secretary of 
#Commerce on behalf of the United States.  All rights reserved.
_database_code_ICSD                159433
_audit_creation_date               2008/08/01
_chemical_name_systematic          'Calcium Iridate(IV)'
_chemical_formula_structural       'Ca (Ir O3)'
_chemical_formula_sum              'Ca1 Ir1 O3'
_publ_section_title
;
Structure and elasticity of Cmcm Ca Ir O3 and their pressure 
dependences: ab initio calculations
;
loop_
_citation_id
_citation_journal_abbrev
_citation_year
_citation_journal_volume
_citation_page_first
_citation_page_last
_citation_journal_id_ASTM
primary 'Physical Review, Serie 3. B - Condensed Matter (18,1978-)'
 2007 76 144119-1 144119-6 PRBMDO
_publ_author_name                  'Tsuchiya, T.;Tsuchiya, J.'
_cell_length_a                     5.209
_cell_length_b                     5.643
_cell_length_c                     7.589
_cell_angle_alpha                  90.
_cell_angle_beta                   90.
_cell_angle_gamma                  90.
_cell_volume                       223.07
_cell_formula_units_Z              4
_symmetry_space_group_name_H-M     'P b n m'
_symmetry_Int_Tables_number        62
loop_
_symmetry_equiv_pos_site_id
_symmetry_equiv_pos_as_xyz
  1	'-x+.5, y+.5, z'
  2	'x, y, -z+.5'
  3	'x+.5, -y+.5, z+.5'
  4	'-x, -y, -z'
  5	'x+.5, -y+.5, -z'
  6	'-x, -y, z+.5'
  7	'-x+.5, y+.5, -z+.5'
  8	'x, y, z'
loop_
_atom_type_symbol
_atom_type_oxidation_number
Ca2+	2
Ir4+	4
O2-	-2
loop_
_atom_site_label
_atom_site_type_symbol
_atom_site_symmetry_multiplicity
_atom_site_Wyckoff_symbol
_atom_site_fract_x
_atom_site_fract_y
_atom_site_fract_z
_atom_site_occupancy
_atom_site_attached_hydrogens
Ca1 Ca2+ 4 c 0.976 0.571 0.250 1. 0 
Ir1 Ir4+ 4 a 0 0 0 1. 0 
O1 O2- 4 c 0.118 0.953 0.250 1. 0 
O2 O2- 8 d 0.684 0.807 0.057 1. 0 

#End of data_159433-ICSD


