data_187569-ICSD
#?2014 by Fachinformationszentrum Karlsruhe, and the U.S. Secretary of 
#Commerce on behalf of the United States.  All rights reserved.
_database_code_ICSD                187569
_audit_creation_date               2013/08/01
_chemical_name_systematic
;
Potassium Aluminosilicate Hydroxide (4/12/8)
;
_chemical_formula_structural       'K4 (Al12 Si12 O40 (O H)8)'
_chemical_formula_sum              'H8 Al12 K4 O48 Si12'
_chemical_name_mineral             'Muscovite 2M1'
_publ_section_title
;
Computational study of the elastic behavior of the 2M1 muscovite-
paragonite series
;
loop_
_citation_id
_citation_journal_abbrev
_citation_year
_citation_journal_volume
_citation_journal_issue
_citation_page_first
_citation_page_last
_citation_journal_id_ASTM
primary 'American Mineralogist' 2013 98 4 651 664 AMMIAY
_publ_author_name
;
Hernandez-Haro, N.;Ortega-Castro, J.;Perez Del Valle, C.;Munoz-
Santiburcio, D.;Sainz-Diaz, C.I.;Hernandez-Laguna, A.
;
_cell_length_a                     5.18695
_cell_length_b                     9.00657
_cell_length_c                     20.14774
_cell_angle_alpha                  89.99991
_cell_angle_beta                   95.43746
_cell_angle_gamma                  89.99962
_cell_volume                       937
_cell_formula_units_Z              1
_symmetry_space_group_name_H-M     'P 1'
_symmetry_Int_Tables_number        1
loop_
_symmetry_equiv_pos_site_id
_symmetry_equiv_pos_as_xyz
  1	'x, y, z'
loop_
_atom_type_symbol
_atom_type_oxidation_number
Al3+	3
H1+	1
K1+	1
O2-	-2
Si4+	4
loop_
_atom_site_label
_atom_site_type_symbol
_atom_site_symmetry_multiplicity
_atom_site_Wyckoff_symbol
_atom_site_fract_x
_atom_site_fract_y
_atom_site_fract_z
_atom_site_occupancy
_atom_site_attached_hydrogens
K1 K1+ 1 a 0.49999 0.39642 0.75000 1.0000 0 
Al1 Al3+ 1 a 0.24762 0.91462 0.50102 1.0000 0 
Si1 Si4+ 1 a 0.46057 0.06928 0.63554 1.0000 0 
Al2 Al3+ 1 a 0.46401 0.73896 0.63632 1.0000 0 
O1 O2- 1 a 0.46053 0.06005 0.55383 1.0000 0 
O2 O2- 1 a 0.38377 0.75026 0.54943 1.0000 0 
O3 O2- 1 a 0.45560 0.43472 0.55079 1.0000 0 
O4 O2- 1 a 0.41102 0.91452 0.67217 1.0000 0 
O5 O2- 1 a 0.25020 0.19400 0.65885 1.0000 0 
O6 O2- 1 a 0.74725 0.13240 0.66849 1.0000 0 
H1 H1+ 1 a 0.36095 0.34169 0.55296 1.0000 0 
Al3 Al3+ 1 a 0.75238 0.91463 -0.00103 1.0000 0 
Si2 Si4+ 1 a 0.53943 0.06928 -0.13554 1.0000 0 
Al4 Al3+ 1 a 0.53597 0.73897 -0.13632 1.0000 0 
O7 O2- 1 a 0.53947 0.06006 -0.05383 1.0000 0 
O8 O2- 1 a 0.61621 0.75027 -0.04943 1.0000 0 
O9 O2- 1 a 0.54438 0.43474 -0.05079 1.0000 0 
O10 O2- 1 a 0.58898 0.91452 -0.17217 1.0000 0 
O11 O2- 1 a 0.74980 0.19400 -0.15885 1.0000 0 
O12 O2- 1 a 0.25275 0.13241 -0.16849 1.0000 0 
H2 H1+ 1 a 0.63903 0.34172 -0.05296 1.0000 0 
K2 K1+ 1 a 0.50001 0.60358 0.25000 1.0000 0 
Al5 Al3+ 1 a 0.75238 0.08538 0.49898 1.0000 0 
Si3 Si4+ 1 a 0.53943 0.93072 0.36446 1.0000 0 
Al6 Al3+ 1 a 0.53598 0.26104 0.36368 1.0000 0 
O13 O2- 1 a 0.53947 0.93996 0.44617 1.0000 0 
O14 O2- 1 a 0.61623 0.24974 0.45057 1.0000 0 
O15 O2- 1 a 0.54440 0.56529 0.44921 1.0000 0 
O16 O2- 1 a 0.58899 0.08549 0.32783 1.0000 0 
O17 O2- 1 a 0.74980 0.80600 0.34115 1.0000 0 
O18 O2- 1 a 0.25275 0.86760 0.33151 1.0000 0 
H3 H1+ 1 a 0.63905 0.65831 0.44704 1.0000 0 
Al7 Al3+ 1 a 0.24761 0.08539 0.00102 1.0000 0 
Si4 Si4+ 1 a 0.46058 0.93073 0.13553 1.0000 0 
Al8 Al3+ 1 a 0.46401 0.26104 0.13631 1.0000 0 
O19 O2- 1 a 0.46053 0.93997 0.05382 1.0000 0 
O20 O2- 1 a 0.38377 0.24975 0.04943 1.0000 0 
O21 O2- 1 a 0.45558 0.56530 0.05079 1.0000 0 
O22 O2- 1 a 0.41102 0.08549 0.17216 1.0000 0 
O23 O2- 1 a 0.25020 0.80601 0.15884 1.0000 0 
O24 O2- 1 a 0.74725 0.86760 0.16849 1.0000 0 
H4 H1+ 1 a 0.36094 0.65832 0.05296 1.0000 0 
K3 K1+ 1 a -0.00001 0.90120 0.75000 1.0000 0 
Al9 Al3+ 1 a 0.74579 0.41653 0.49942 1.0000 0 
Si5 Si4+ 1 a 0.98243 0.57006 0.63647 1.0000 0 
Si6 Si4+ 1 a 0.94993 0.24379 0.63438 1.0000 0 
O25 O2- 1 a 0.96479 0.55294 0.55409 1.0000 0 
O26 O2- 1 a 0.90003 0.24929 0.55337 1.0000 0 
O27 O2- 1 a 0.95681 0.94339 0.55162 1.0000 0 
O28 O2- 1 a 0.90470 0.40643 0.66838 1.0000 0 
O29 O2- 1 a 0.79055 0.69959 0.65813 1.0000 0 
O30 O2- 1 a 0.27028 0.60714 0.67129 1.0000 0 
H5 H1+ 1 a 0.87429 0.85375 0.56648 1.0000 0 
Al10 Al3+ 1 a 0.25419 0.41654 0.00058 1.0000 0 
Si7 Si4+ 1 a 0.01755 0.57007 -0.13648 1.0000 0 
Si8 Si4+ 1 a 0.05006 0.24380 -0.13438 1.0000 0 
O31 O2- 1 a 0.03519 0.55294 -0.05410 1.0000 0 
O32 O2- 1 a 0.09996 0.24930 -0.05338 1.0000 0 
O33 O2- 1 a 0.04319 0.94339 -0.05162 1.0000 0 
O34 O2- 1 a 0.09530 0.40644 -0.16838 1.0000 0 
O35 O2- 1 a 0.20943 0.69960 -0.15813 1.0000 0 
O36 O2- 1 a 0.72970 0.60715 -0.17130 1.0000 0 
H6 H1+ 1 a 0.12571 0.85376 -0.06648 1.0000 0 
K4 K1+ 1 a 0.00000 0.09881 0.25000 1.0000 0 
Al11 Al3+ 1 a 0.25421 0.58348 0.50058 1.0000 0 
Si9 Si4+ 1 a 0.01756 0.42994 0.36353 1.0000 0 
Si10 Si4+ 1 a 0.05007 0.75621 0.36562 1.0000 0 
O37 O2- 1 a 0.03520 0.44707 0.44591 1.0000 0 
O38 O2- 1 a 0.09996 0.75072 0.44663 1.0000 0 
O39 O2- 1 a 0.04319 0.05661 0.44838 1.0000 0 
O40 O2- 1 a 0.09530 0.59357 0.33162 1.0000 0 
O41 O2- 1 a 0.20945 0.30041 0.34187 1.0000 0 
O42 O2- 1 a 0.72972 0.39286 0.32871 1.0000 0 
H7 H1+ 1 a 0.12571 0.14625 0.43352 1.0000 0 
Al12 Al3+ 1 a 0.74577 0.58349 -0.00058 1.0000 0 
Si11 Si4+ 1 a 0.98243 0.42995 0.13647 1.0000 0 
Si12 Si4+ 1 a 0.94993 0.75621 0.13437 1.0000 0 
O43 O2- 1 a 0.96478 0.44707 0.05409 1.0000 0 
O44 O2- 1 a 0.90002 0.75072 0.05336 1.0000 0 
O45 O2- 1 a 0.95681 0.05662 0.05161 1.0000 0 
O46 O2- 1 a 0.90470 0.59358 0.16837 1.0000 0 
O47 O2- 1 a 0.79054 0.30041 0.15813 1.0000 0 
O48 O2- 1 a 0.27027 0.39286 0.17129 1.0000 0 
H8 H1+ 1 a 0.87429 0.14626 0.06648 1.0000 0 

#End of data_187569-ICSD


