data_183763-ICSD
#?2014 by Fachinformationszentrum Karlsruhe, and the U.S. Secretary of 
#Commerce on behalf of the United States.  All rights reserved.
_database_code_ICSD                183763
_audit_creation_date               2012/08/01
_audit_update_record               2013/08/01
_chemical_name_systematic          'Lithium Iron Silicate'
_chemical_formula_structural       'Li Fe (Si O4)'
_chemical_formula_sum              'Fe1 Li1 O4 Si1'
_publ_section_title
;
Crystal structure, energetics and electrochemistry of Li2 Fe Si O4 
polymorphs from first principles calculations
;
loop_
_citation_id
_citation_journal_abbrev
_citation_year
_citation_journal_volume
_citation_page_first
_citation_page_last
_citation_journal_id_ASTM
primary 'Chemistry of Materials' 2012 24 495 503 CMATEX
_publ_author_name
;
Saracibar, A.;Van der Ven, A.;Arroyo-deDompablo, M.E.
;
_cell_length_a                     6.722
_cell_length_b                     5.204
_cell_length_c                     5.061
_cell_angle_alpha                  90.
_cell_angle_beta                   90.467
_cell_angle_gamma                  90.
_cell_volume                       177.03
_cell_formula_units_Z              2
_symmetry_space_group_name_H-M     'P 1'
_symmetry_Int_Tables_number        1
loop_
_symmetry_equiv_pos_site_id
_symmetry_equiv_pos_as_xyz
  1	'x, y, z'
loop_
_atom_type_symbol
_atom_type_oxidation_number
Fe3+	3
Li1+	1
O2-	-2
Si4+	4
loop_
_atom_site_label
_atom_site_type_symbol
_atom_site_symmetry_multiplicity
_atom_site_Wyckoff_symbol
_atom_site_fract_x
_atom_site_fract_y
_atom_site_fract_z
_atom_site_occupancy
_atom_site_attached_hydrogens
Li1 Li1+ 1 a 0.75018 0.31714 0.76134 1. 0 
Li2 Li1+ 1 a 0.25018 0.68286 0.26134 1. 0 
Fe1 Fe3+ 1 a 0.74826 0.67931 0.26358 1. 0 
Fe2 Fe3+ 1 a 0.24826 0.32069 0.76358 1. 0 
Si1 Si4+ 1 a 0.99985 0.81350 0.76562 1. 0 
Si2 Si4+ 1 a 0.49985 0.18650 0.26562 1. 0 
O1 O2- 1 a 0.98782 0.76375 0.08710 1. 0 
O2 O2- 1 a 0.48782 0.23625 0.58710 1. 0 
O3 O2- 1 a 0.01456 0.12227 0.70229 1. 0 
O4 O2- 1 a 0.51456 0.87773 0.20229 1. 0 
O5 O2- 1 a 0.80159 0.68280 0.63022 1. 0 
O6 O2- 1 a 0.69656 0.33877 0.14937 1. 0 
O7 O2- 1 a 0.19656 0.66123 0.64937 1. 0 
O8 O2- 1 a 0.30159 0.31720 0.13022 1. 0 

#End of data_183763-ICSD


