data_165647-ICSD
#?2014 by Fachinformationszentrum Karlsruhe, and the U.S. Secretary of 
#Commerce on behalf of the United States.  All rights reserved.
_database_code_ICSD                165647
_audit_creation_date               2010/02/01
_chemical_name_systematic
;
Tetramagnesium Heptakis(tetrahydridoborate) Dihydridoborate
;
_chemical_formula_structural       'Mg4 (B H4)7 (B H2)'
_chemical_formula_sum              'H30 B8 Mg4'
_publ_section_title
;
A new phase in the decomposition of Mg (B H4)2: first-principles 
simulated annealing
;
loop_
_citation_id
_citation_journal_abbrev
_citation_year
_citation_journal_volume
_citation_page_first
_citation_page_last
_citation_journal_id_ASTM
primary 'Journal of Materials Chemistry' 2009 19 7081 7087 JMACEP
_publ_author_name
;
van Setten, M.J.;Lohstroh, W.;Fichtner, M.
;
_cell_length_a                     8.09343
_cell_length_b                     8.18062
_cell_length_c                     10.3146
_cell_angle_alpha                  90(1)
_cell_angle_beta                   90.920
_cell_angle_gamma                  90(1)
_cell_volume                       682.83
_cell_formula_units_Z              1
_symmetry_space_group_name_H-M     'P 1'
_symmetry_Int_Tables_number        1
loop_
_symmetry_equiv_pos_site_id
_symmetry_equiv_pos_as_xyz
  1	'x, y, z'
loop_
_atom_type_symbol
_atom_type_oxidation_number
B1+	1
B3+	3
H1-	-1
Mg2+	2
loop_
_atom_site_label
_atom_site_type_symbol
_atom_site_symmetry_multiplicity
_atom_site_Wyckoff_symbol
_atom_site_fract_x
_atom_site_fract_y
_atom_site_fract_z
_atom_site_occupancy
_atom_site_attached_hydrogens
Mg1 Mg2+ 1 a 0.1096160338 0.5389006765 0.2046455582 1. 0 
Mg2 Mg2+ 1 a 0.3789947322 0.9688685485 0.7957266000 1. 0 
Mg3 Mg2+ 1 a 0.9306814238 0.0269275658 0.0048637486 1. 0 
Mg4 Mg2+ 1 a 0.2819962787 0.4775890908 0.5283203859 1. 0 
B1 B3+ 1 a 0.1762411193 0.8971172099 0.9499243743 1. 0 
B2 B3+ 1 a 0.6556520186 0.0061322728 0.9099545176 1. 0 
B3 B3+ 1 a 0.0806800492 0.7913341869 0.0806124711 1. 0 
B4 B3+ 1 a 0.9978510636 0.2936394425 0.0886463573 1. 0 
B5 B3+ 1 a 0.0159825840 0.5868570399 0.4321613129 1. 0 
B6 B3+ 1 a 0.3702795462 0.4116495982 0.3031398751 1. 0 
B7 B3+ 1 a 0.3407591319 0.2247880660 0.6598209006 1. 0 
B8 B1+ 1 a 0.3506618698 0.7289685843 0.6470959340 1. 0 
H1 H1- 1 a 0.7812805043 0.0121730113 0.8441855102 1. 0 
H2 H1- 1 a 0.1835335074 0.7772620124 0.1693488177 1. 0 
H3 H1- 1 a 0.9029297319 0.3941083775 0.1334163244 1. 0 
H4 H1- 1 a 0.1468266702 0.6509797235 0.3987223850 1. 0 
H5 H1- 1 a 0.4505761759 0.3035800648 0.2567398855 1. 0 
H6 H1- 1 a 0.2787256501 0.2059720237 0.7669915753 1. 0 
H7 H1- 1 a 0.4688740194 0.7456970695 0.7216830432 1. 0 
H8 H1- 1 a 0.5690257298 0.1218248431 0.8765584721 1. 0 
H9 H1- 1 a 0.1435533583 0.3344279019 0.0877184497 1. 0 
H10 H1- 1 a 0.0301566338 0.6576411563 0.0401369294 1. 0 
H11 H1- 1 a 0.4493603964 0.4750683815 0.3938156354 1. 0 
H12 H1- 1 a 0.9450077586 0.5168390725 0.3407270078 1. 0 
H13 H1- 1 a 0.2614123206 0.8493080544 0.6361965935 1. 0 
H14 H1- 1 a 0.2261267934 0.2349721940 0.5802617030 1. 0 
H15 H1- 1 a 0.2647996923 0.0128706439 0.9842536741 1. 0 
H16 H1- 1 a 0.5942099250 0.8712171462 0.8929233686 1. 0 
H17 H1- 1 a 0.0824830793 0.9518548683 0.8621736859 1. 0 
H18 H1- 1 a 0.9558064306 0.2735835193 0.9744395005 1. 0 
H19 H1- 1 a 0.2563125161 0.7915424408 0.8956186064 1. 0 
H20 H1- 1 a 0.6797427495 0.0209890368 0.0278024146 1. 0 
H21 H1- 1 a 0.9891658231 0.1708049568 0.1573517793 1. 0 
H22 H1- 1 a 0.9579973000 0.8506854618 0.1359940849 1. 0 
H23 H1- 1 a 0.0394791115 0.4759713207 0.5122740350 1. 0 
H24 H1- 1 a 0.3516893656 0.5247717635 0.2243474404 1. 0 
H25 H1- 1 a 0.4291939483 0.1113205610 0.6255693183 1. 0 
H26 H1- 1 a 0.2647790343 0.6183824271 0.6911769554 1. 0 
H27 H1- 1 a 0.9277325776 0.6902455076 0.4762361742 1. 0 
H28 H1- 1 a 0.2368411452 0.3551673228 0.3385200324 1. 0 
H29 H1- 1 a 0.4081917757 0.7009160774 0.5400613256 1. 0 
H30 H1- 1 a 0.4287548429 0.3470507954 0.6668204042 1. 0 

#End of data_165647-ICSD


