data_168225-ICSD
#?2014 by Fachinformationszentrum Karlsruhe, and the U.S. Secretary of 
#Commerce on behalf of the United States.  All rights reserved.
_database_code_ICSD                168225
_audit_creation_date               2011/02/01
_chemical_name_systematic
;
Calcium Bis(tetrahydroborate) - Beta,p42/m
;
_chemical_formula_structural       'Ca (B H4)2'
_chemical_formula_sum              'H8 B2 Ca1'
_publ_section_title
;
Calcium borohydride for hydrogen storage: a computational study of Ca 
(B H4)2 crystal structures and the Ca B2 Hx intermediate
;
loop_
_citation_id
_citation_journal_abbrev
_citation_year
_citation_journal_volume
_citation_page_first
_citation_page_last
_citation_journal_id_ASTM
primary 'Journal of Physical Chemistry C' 2010 114 9503 9509 JPCCCK
_publ_author_name                  'Frankcombe, T.J.'
_cell_length_a                     6.9342
_cell_length_b                     6.9342
_cell_length_c                     4.3555
_cell_angle_alpha                  90.
_cell_angle_beta                   90.
_cell_angle_gamma                  90.
_cell_volume                       209.43
_cell_formula_units_Z              2
_symmetry_space_group_name_H-M     'P 42/m'
_symmetry_Int_Tables_number        84
loop_
_symmetry_equiv_pos_site_id
_symmetry_equiv_pos_as_xyz
  1	'-y, x, -z+.5'
  2	'y, -x, -z+.5'
  3	'x, y, -z'
  4	'-x, -y, -z'
  5	'y, -x, z+.5'
  6	'-y, x, z+.5'
  7	'-x, -y, z'
  8	'x, y, z'
loop_
_atom_type_symbol
_atom_type_oxidation_number
B3+	3
Ca2+	2
H1-	-1
loop_
_atom_site_label
_atom_site_type_symbol
_atom_site_symmetry_multiplicity
_atom_site_Wyckoff_symbol
_atom_site_fract_x
_atom_site_fract_y
_atom_site_fract_z
_atom_site_occupancy
_atom_site_attached_hydrogens
Ca1 Ca2+ 2 c 0 0.5 0 1. 0 
B1 B3+ 4 j 0.31640 0.20337 0 1. 0 
H1 H1- 4 j 0.30684 0.37895 0 1. 0 
H2 H1- 4 j 0.49029 0.17131 0 1. 0 
H3 H1- 8 k 0.23753 0.13515 0.77324 1. 0 

#End of data_168225-ICSD


