data_190789-ICSD
#?2014 by Fachinformationszentrum Karlsruhe, and the U.S. Secretary of 
#Commerce on behalf of the United States.  All rights reserved.
_database_code_ICSD                190789
_audit_creation_date               2014/08/01
_chemical_name_systematic          'Magnesium Disilicate'
_chemical_formula_structural       'Mg (Si2 O5)'
_chemical_formula_sum              'Mg1 O5 Si2'
_publ_section_title
;
An adaptive genetic algorithm for crystal structure prediction
;
loop_
_citation_id
_citation_journal_abbrev
_citation_year
_citation_journal_volume
_citation_journal_issue
_citation_page_first
_citation_page_last
_citation_journal_id_ASTM
primary 'Journal of Physics: Condensed Matter' 2014 26 3 035402-1 035402-6 JCOMEL
_publ_author_name
;
Wu, S.Q.;Ji, M.;Wang, C.Z.;Nguyen, M.C.;Zhao, X.;Umemoto, 
K.;Wentzcovitch, R.M.;Ho, K.M.
;
_cell_length_a                     4.4358
_cell_length_b                     4.0308
_cell_length_c                     6.1897
_cell_angle_alpha                  90.
_cell_angle_beta                   89.5808
_cell_angle_gamma                  90.
_cell_volume                       110.67
_cell_formula_units_Z              4
_symmetry_space_group_name_H-M     'P 1 21/c 1'
_symmetry_Int_Tables_number        14
loop_
_symmetry_equiv_pos_site_id
_symmetry_equiv_pos_as_xyz
  1	'x, -y+.5, z+.5'
  2	'-x, -y, -z'
  3	'-x, y+.5, -z+.5'
  4	'x, y, z'
loop_
_atom_type_symbol
_atom_type_oxidation_number
Mg2+	2
O2-	-2
Si4+	4
loop_
_atom_site_label
_atom_site_type_symbol
_atom_site_symmetry_multiplicity
_atom_site_Wyckoff_symbol
_atom_site_fract_x
_atom_site_fract_y
_atom_site_fract_z
_atom_site_occupancy
_atom_site_attached_hydrogens
Mg1 Mg2+ 4 e 0.0056 0.5641 0.1688 1. 0 
Si1 Si4+ 4 e 0.5032 0.4519 0.8240 1. 0 
Si2 Si4+ 4 e 0.7569 0.9309 0.9917 1. 0 
O1 O2- 4 e 0.7385 0.6749 0.7195 1. 0 
O2 O2- 4 e 0.2678 0.8453 0.1942 1. 0 
O3 O2- 4 e 0.7263 0.5331 0 1. 0 
O4 O2- 4 e 0.9575 0.1890 0.0776 1. 0 
O5 O2- 4 e 0.4606 0.8275 0.9139 1. 0 

#End of data_190789-ICSD


