data_162771-ICSD
#?2014 by Fachinformationszentrum Karlsruhe, and the U.S. Secretary of 
#Commerce on behalf of the United States.  All rights reserved.
_database_code_ICSD                162771
_audit_creation_date               2009/08/01
_chemical_name_systematic          'Lithium Beryllium Hydride'
_chemical_formula_structural       'Li Be H3'
_chemical_formula_sum              'H3 Be1 Li1'
_publ_section_title
;
Crystal structure prediction of Li Be H3 using ab initio total-energy 
calculations and evolutionary simulations
;
loop_
_citation_id
_citation_journal_abbrev
_citation_year
_citation_journal_volume
_citation_page_first
_citation_page_last
_citation_journal_id_ASTM
primary 'Journal of Chemical Physics' 2008 129 234105-1 234105-12 JCPSA6
_publ_author_name
;
Hu Chaohao;Oganov, A.R.;Wang, Y.W.;Zhou, H.-Y.;Lyakhov, A.;Hafner, J.
;
_cell_length_a                     6.0044
_cell_length_b                     6.1264
_cell_length_c                     6.7632
_cell_angle_alpha                  76.0122
_cell_angle_beta                   82.8140
_cell_angle_gamma                  90.3877
_cell_volume                       239.34
_cell_formula_units_Z              6
_symmetry_space_group_name_H-M     'P -1'
_symmetry_Int_Tables_number        2
loop_
_symmetry_equiv_pos_site_id
_symmetry_equiv_pos_as_xyz
  1	'-x, -y, -z'
  2	'x, y, z'
loop_
_atom_type_symbol
_atom_type_oxidation_number
Be2+	2
H1-	-1
Li1+	1
loop_
_atom_site_label
_atom_site_type_symbol
_atom_site_symmetry_multiplicity
_atom_site_Wyckoff_symbol
_atom_site_fract_x
_atom_site_fract_y
_atom_site_fract_z
_atom_site_occupancy
_atom_site_attached_hydrogens
Li1 Li1+ 2 i 0.98929 0.24827 0.00445 1. 0 
Li2 Li1+ 2 i 0.25313 0.92701 0.29722 1. 0 
Li3 Li1+ 2 i 0.23850 0.43217 0.31519 1. 0 
Be1 Be2+ 2 i 0.77229 0.95223 0.32515 1. 0 
Be2 Be2+ 2 i 0.77515 0.38210 0.31685 1. 0 
Be3 Be2+ 2 i 0.56511 0.71756 0.12720 1. 0 
H1 H1- 2 i 0.67024 0.27710 0.88827 1. 0 
H2 H1- 2 i 0.70804 0.77061 0.93736 1. 0 
H3 H1- 2 i 0.02725 0.06282 0.80538 1. 0 
H4 H1- 2 i 0.02513 0.53699 0.81609 1. 0 
H5 H1- 2 i 0.22112 0.13362 0.46323 1. 0 
H6 H1- 2 i 0.19987 0.63676 0.47828 1. 0 
H7 H1- 2 i 0.42386 0.13633 0.73487 1. 0 
H8 H1- 2 i 0.42511 0.50409 0.73903 1. 0 
H9 H1- 2 i 0.29447 0.82038 0.73099 1. 0 

#End of data_162771-ICSD


