data_186520-ICSD
#?2014 by Fachinformationszentrum Karlsruhe, and the U.S. Secretary of 
#Commerce on behalf of the United States.  All rights reserved.
_database_code_ICSD                186520
_audit_creation_date               2013/08/01
_chemical_name_systematic          'Lithium Iron Silicate'
_chemical_formula_structural       'Li Fe (Si O4)'
_chemical_formula_sum              'Fe1 Li1 O4 Si1'
_publ_section_title
;
Structural properties and energetics of Li2 Fe Si O4 polymorphs and 
their delithiated products from first-principles
;
loop_
_citation_id
_citation_journal_abbrev
_citation_year
_citation_journal_volume
_citation_journal_issue
_citation_page_first
_citation_page_last
_citation_journal_id_ASTM
primary 'Physical Chemistry Chemical Physics' 2012 14 20 7346 7351 PPCPFQ
_publ_author_name
;
Zhang, P.;Hu, C.H.;Wu, S.Q.;Zhu, Z.Z.;Yang, Y.
;
_cell_length_a                     10.0975
_cell_length_b                     5.0347
_cell_length_c                     6.6521
_cell_angle_alpha                  90.
_cell_angle_beta                   89.085
_cell_angle_gamma                  90.
_cell_volume                       338.14
_cell_formula_units_Z              4
_symmetry_space_group_name_H-M     'P 1 21/n 1'
_symmetry_Int_Tables_number        14
loop_
_symmetry_equiv_pos_site_id
_symmetry_equiv_pos_as_xyz
  1	'-x+.5, y+.5, -z+.5'
  2	'-x, -y, -z'
  3	'x+.5, -y+.5, z+.5'
  4	'x, y, z'
loop_
_atom_type_symbol
_atom_type_oxidation_number
Fe3+	3
Li1+	1
O2-	-2
Si4+	4
loop_
_atom_site_label
_atom_site_type_symbol
_atom_site_symmetry_multiplicity
_atom_site_Wyckoff_symbol
_atom_site_fract_x
_atom_site_fract_y
_atom_site_fract_z
_atom_site_occupancy
_atom_site_attached_hydrogens
Li1 Li1+ 4 e 0.6491 0.1631 0.0106 1. 0 
Fe1 Fe3+ 4 e 0.3322 0.8344 0.5031 1. 0 
Si1 Si4+ 4 e 0.0779 0.8379 0.7563 1. 0 
O1 O2- 4 e 0.9207 0.7485 0.7567 1. 0 
O2 O2- 4 e 0.3492 0.2349 0.9545 1. 0 
O3 O2- 4 e 0.6563 0.7961 0.4484 1. 0 
O4 O2- 4 e 0.9081 0.8372 0.2265 1. 0 

#End of data_186520-ICSD


