data_188387-ICSD
#?2014 by Fachinformationszentrum Karlsruhe, and the U.S. Secretary of 
#Commerce on behalf of the United States.  All rights reserved.
_database_code_ICSD                188387
_audit_creation_date               2014/02/01
_chemical_name_systematic          'Zinc Cadmium Selenide (0.5/0.5/1)'
_chemical_formula_structural       '(Zn0.5 Cd0.5) Se'
_chemical_formula_sum              'Cd0.5 Se1 Zn0.5'
_publ_section_title
;
First principles calculations of the electronic and optical 
properties in Cdx Zn1-x Se ternary alloys
;
loop_
_citation_id
_citation_journal_abbrev
_citation_year
_citation_journal_volume
_citation_journal_issue
_citation_page_first
_citation_page_last
_citation_journal_id_ASTM
primary 'Journal of Ningxia University, Natural Science Edition'
 2012 33 1 43 49 NDXKD8
_publ_author_name                  'Zhao, Hongsheng;Yang, Tao;Wu, Deqi'
_cell_length_a                     4.27
_cell_length_b                     4.27
_cell_length_c                     6.09
_cell_angle_alpha                  90.
_cell_angle_beta                   90.
_cell_angle_gamma                  90.
_cell_volume                       111.04
_cell_formula_units_Z              2
_symmetry_space_group_name_H-M     'P -4 m 2'
_symmetry_Int_Tables_number        115
loop_
_symmetry_equiv_pos_site_id
_symmetry_equiv_pos_as_xyz
  1	'-y, -x, -z'
  2	'x, -y, z'
  3	'y, x, -z'
  4	'-x, y, z'
  5	'y, -x, -z'
  6	'-x, -y, z'
  7	'-y, x, -z'
  8	'x, y, z'
loop_
_atom_type_symbol
_atom_type_oxidation_number
Cd2+	2
Se2-	-2
Zn2+	2
loop_
_atom_site_label
_atom_site_type_symbol
_atom_site_symmetry_multiplicity
_atom_site_Wyckoff_symbol
_atom_site_fract_x
_atom_site_fract_y
_atom_site_fract_z
_atom_site_occupancy
_atom_site_attached_hydrogens
Cd1 Cd2+ 1 a 0 0 0 1. 0 
Zn1 Zn2+ 1 c 0.5 0.5 0.5 1. 0 
Se1 Se2- 2 g 0.5 0 0.250 1. 0 

#End of data_188387-ICSD


