data_245982-ICSD
#?2014 by Fachinformationszentrum Karlsruhe, and the U.S. Secretary of 
#Commerce on behalf of the United States.  All rights reserved.
_database_code_ICSD                245982
_audit_creation_date               2009/02/01
_chemical_name_systematic          'Cesium Trilithium Tetrabromide'
_chemical_formula_structural       'Cs Li3 Br4'
_chemical_formula_sum              'Br4 Cs1 Li3'
_publ_section_title
;
Ab initio prediction of the low-temperature phase diagrams in the 
systems CsX-LiX (X = F, Cl, Br, I)
;
loop_
_citation_id
_citation_journal_abbrev
_citation_year
_citation_journal_volume
_citation_journal_issue
_citation_page_first
_citation_page_last
_citation_journal_id_ASTM
primary 'Solid State Sciences' 2008 10 6 804 813 SSSCFJ
_publ_author_name
;
Pentin, I.V.;Schoen, J.C.;Jansen, M.
;
_cell_length_a                     5.65
_cell_length_b                     11.01
_cell_length_c                     8.52
_cell_angle_alpha                  90.
_cell_angle_beta                   90.
_cell_angle_gamma                  90.
_cell_volume                       530
_cell_formula_units_Z              2
_symmetry_space_group_name_H-M     'P m c 21'
_symmetry_Int_Tables_number        26
loop_
_symmetry_equiv_pos_site_id
_symmetry_equiv_pos_as_xyz
  1	'x, -y, z+.5'
  2	'-x, -y, z+.5'
  3	'-x, y, z'
  4	'x, y, z'
loop_
_atom_type_symbol
_atom_type_oxidation_number
Br1-	-1
Cs1+	1
Li1+	1
loop_
_atom_site_label
_atom_site_type_symbol
_atom_site_symmetry_multiplicity
_atom_site_Wyckoff_symbol
_atom_site_fract_x
_atom_site_fract_y
_atom_site_fract_z
_atom_site_occupancy
_atom_site_attached_hydrogens
Cs1 Cs1+ 2 b 0.5 0.53888 0.34551 1. 0 
Li1 Li1+ 2 b 0.5 0.02940 0.71405 1. 0 
Li2 Li1+ 2 a 0 0.78211 0.90724 1. 0 
Li3 Li1+ 2 a 0 0.16663 0.00083 1. 0 
Br1 Br1- 2 a 0 0.00425 0.74631 1. 0 
Br2 Br1- 2 a 0 0.60601 0.65551 1. 0 
Br3 Br1- 2 b 0.5 0.83947 0.49824 1. 0 
Br4 Br1- 2 b 0.5 0.77198 0.00324 1. 0 

#End of data_245982-ICSD


