data_161056-ICSD
#?2014 by Fachinformationszentrum Karlsruhe, and the U.S. Secretary of 
#Commerce on behalf of the United States.  All rights reserved.
_database_code_ICSD                161056
_audit_creation_date               2009/02/01
_chemical_name_systematic          'Magnesium Dialuminate'
_chemical_formula_structural       'Mg (Al2 O4)'
_chemical_formula_sum              'Al2 Mg1 O4'
_publ_section_title
;
First-principles simulation of high-pressure polymorphs in Mg Al2 O4
;
loop_
_citation_id
_citation_journal_abbrev
_citation_year
_citation_journal_volume
_citation_page_first
_citation_page_last
_citation_journal_id_ASTM
primary 'Physics and Chemistry of Minerals' 2008 35 381 386 PCMIDU
_publ_author_name                  'Ono, S.;Brodholt, J.P.;Price, G.D.'
_cell_length_a                     10.018
_cell_length_b                     8.756
_cell_length_c                     2.811
_cell_angle_alpha                  90.
_cell_angle_beta                   90.
_cell_angle_gamma                  90.
_cell_volume                       246.57
_cell_formula_units_Z              4
_symmetry_space_group_name_H-M     'P b n m'
_symmetry_Int_Tables_number        62
loop_
_symmetry_equiv_pos_site_id
_symmetry_equiv_pos_as_xyz
  1	'-x+.5, y+.5, z'
  2	'x, y, -z+.5'
  3	'x+.5, -y+.5, z+.5'
  4	'-x, -y, -z'
  5	'x+.5, -y+.5, -z'
  6	'-x, -y, z+.5'
  7	'-x+.5, y+.5, -z+.5'
  8	'x, y, z'
loop_
_atom_type_symbol
_atom_type_oxidation_number
Al3+	3
Mg2+	2
O2-	-2
loop_
_atom_site_label
_atom_site_type_symbol
_atom_site_symmetry_multiplicity
_atom_site_Wyckoff_symbol
_atom_site_fract_x
_atom_site_fract_y
_atom_site_fract_z
_atom_site_occupancy
_atom_site_attached_hydrogens
Mg1 Mg2+ 4 c 0.3486 0.7537 0.250 1. 0 
Al1 Al3+ 4 c 0.3831 0.4413 0.250 1. 0 
Al2 Al3+ 4 c 0.8965 0.4131 0.250 1. 0 
O1 O2- 4 c 0.8313 0.2005 0.250 1. 0 
O2 O2- 4 c 0.5297 0.1200 0.250 1. 0 
O3 O2- 4 c 0.2165 0.5377 0.250 1. 0 
O4 O2- 4 c 0.5703 0.4115 0.250 1. 0 

#End of data_161056-ICSD


