data_153682-ICSD
#?2014 by Fachinformationszentrum Karlsruhe, and the U.S. Secretary of 
#Commerce on behalf of the United States.  All rights reserved.
_database_code_ICSD                153682
_audit_creation_date               2007/04/01
_chemical_name_systematic
;
Tripotassium Hexahydridoaluminate - Alpha
;
_chemical_formula_structural       'K3 (Al H6)'
_chemical_formula_sum              'H6 Al1 K3'
_publ_section_title
;
First-principles investigations of aluminum hydrides: M3 Al H6 (M = 
Na, K)
;
loop_
_citation_id
_citation_journal_abbrev
_citation_year
_citation_journal_volume
_citation_page_first
_citation_page_last
_citation_journal_id_ASTM
primary 'Physical Review, Serie 3. B - Condensed Matter (18,1978-)'
 2005 71 092103-1 092103-4 PRBMDO
_publ_author_name
;
Vajeeston, P.;Ravindran, P.;Kjekshus, A.;Fjellvag, H.
;
_cell_length_a                     6.1771
_cell_length_b                     5.8881
_cell_length_c                     8.6431
_cell_angle_alpha                  90.
_cell_angle_beta                   89.30
_cell_angle_gamma                  90.
_cell_volume                       314.34
_cell_formula_units_Z              2
_symmetry_space_group_name_H-M     'P 1 21/n 1'
_symmetry_Int_Tables_number        14
loop_
_symmetry_equiv_pos_site_id
_symmetry_equiv_pos_as_xyz
  1	'-x+.5, y+.5, -z+.5'
  2	'-x, -y, -z'
  3	'x+.5, -y+.5, z+.5'
  4	'x, y, z'
loop_
_atom_type_symbol
_atom_type_oxidation_number
Al3+	3
H1-	-1
K1+	1
loop_
_atom_site_label
_atom_site_type_symbol
_atom_site_symmetry_multiplicity
_atom_site_Wyckoff_symbol
_atom_site_fract_x
_atom_site_fract_y
_atom_site_fract_z
_atom_site_occupancy
_atom_site_attached_hydrogens
K1 K1+ 2 b 0 0 0.5 1. 0 
K2 K1+ 4 e -0.0058 0.4828 0.2544 1. 0 
Al1 Al3+ 2 a 0 0 0 1. 0 
H1 H1- 4 e 0.0617 0.0089 0.2042 1. 0 
H2 H1- 4 e 0.2799 0.3136 0.5349 1. 0 
H3 H1- 4 e 0.1786 0.2281 0.9652 1. 0 

#End of data_153682-ICSD


