Li Mg Bi  S  O 
 1.0000000000000000
    11.1784999999999997    0.0000000000000000    0.0000000000000000
     0.0000000000000000    9.5746000000000002    0.0000000000000000
     0.0000000000000000    0.0000000000000000   11.1823999999999995
 Li  Mg  Bi  S   O  
   4   6  16  16  16
Direct
  0.3709435513439900 -0.0295174532553423  0.6505641049893985
  0.0759053528811794  0.9874773684007072  0.1970668677875541
  0.6096705261144614  0.9935813003957273  0.2958885114870253
  0.8494262611452131 -0.0202436640809325  0.1957821456664794
  0.3535926307017790 -0.0461507258676891  0.1807717235755744
  0.8658499647217042 -0.0156223734923325  0.4602186291851078
  0.3472315539596311 -0.0297969841089211  0.9138359447919132
  0.0989313941490672  0.9829327893361633  0.6943987461920578
  0.8703480962266461 -0.0217301852239083  0.9336517412889999
  0.6311349322823815  0.9760667749451030  0.7014521837051864
 -0.0153324470634253  0.2833074426841891  0.0723156705750942
  0.2417305546701091  0.6585711951865745  0.0561915114843002
  0.2411993863648686  0.2597602085007754  0.3114992955467805
  0.4873349946037171  0.6608428837002899  0.3131582980621942
  0.4806448946764477  0.2693839472350162  0.0642806600847572
  0.7445461976604880  0.6736066144344030  0.0706351602103551
  0.7399072928101101  0.2932913803926727  0.3195542954485402
  0.9898931301280122  0.6841573320556634  0.3160505486777004
 -0.0090144083503682  0.2933102478995515  0.5648112922716382
  0.2350368208207158  0.6752556026230297  0.5675062120972830
  0.2368572008200205  0.2876730253865960  0.8110998423713285
  0.4920590775689790  0.6686474634366362  0.8138937292969167
  0.4910863476832084  0.2822885184200145  0.5727260855510251
  0.7373052963010219  0.6724666811111967  0.5642843671453772
  0.7363984534670162  0.2837570285181784  0.8231993527715796
  0.9868686521066000  0.6736405076331539  0.8163101277025893
  0.2352896909076226  0.3312678044480243  0.0649874591867082
 -0.0044769885353608  0.6291752713792529  0.0675703042757188
  0.4926174817635662  0.2736805510140173  0.3165125211536606
  0.2413851515258459  0.6919471000436046  0.3106919425023707
  0.7436806880125147  0.3250849317562362  0.0707148783295190
  0.4816034610358109  0.6067495342163552  0.0684380979781410
  0.9935228346001836  0.3364978714318350  0.3218062209717343
  0.7421292934337055  0.6345240466659515  0.3208926259492421
  0.2381054361849748  0.3177497675947165  0.5678178606639878
 -0.0097692616781802  0.6396386910950965  0.5655993404228827
  0.4822365151287430  0.3309333144624198  0.8207505718607482
  0.2425485507484022  0.6219418463620534  0.8070385022319706
  0.7328512428523846  0.3333053280283529  0.5654970669802736
  0.4921815106054683  0.6454652953780026  0.5658844322229069
  0.9843423686354249  0.3260849532584243  0.8116420816774780
  0.7382694153408521  0.6465722419223694  0.8196988638920777
  0.4339741130961470  0.0592699913921273  0.0490613860896539
  0.2508310970134250  0.8788251842432390  0.0456851241999490
  0.2272147608252346  0.0548538664176969  0.2664493901995681
 -0.0399572582278707  0.8990033882140971  0.3187308965748143
  0.9665679807485905  0.0661585412191018  0.0727563582123038
  0.7790412167084054  0.8824524050110624  0.0624803768557805
  0.7605205884111408  0.0757495609443369  0.3309450686488016
  0.4919352470118259  0.8660687015694498  0.2680334188785033
  0.5085113473855444  0.0733228366181787  0.6045203606780235
  0.2258382802163030  0.8838701324998924  0.6030394401159845
  0.2373133356800292  0.0657018930964706  0.7982846437433300
 -0.0124564620558869  0.8928340776231163  0.8153281077431781
  0.9863235126977820  0.0745079695625361  0.5717869318397871
  0.7429647709026488  0.8919180507686566  0.5709697886034854
  0.7427930015274632  0.0656348023950915  0.8224180949911627
  0.4777982846760369  0.8899832331454203  0.8018193514237936
