Li Mg Bi  S  O 
 1.0000000000000000
    11.1784999999999997    0.0000000000000000    0.0000000000000000
     0.0000000000000000    9.5746000000000002    0.0000000000000000
     0.0000000000000000    0.0000000000000000   11.1823999999999995
 Li  Mg  Bi  S   O  
   4   6  16  16  16
Direct
  0.2418299348501334 -0.0199112943745271  0.4245049117079875
  0.6130798405406334  0.9959449818481042  0.4473422584136511
  0.0213949979389636  0.9803456595629518  0.6804784643928906
  0.3691139603096064 -0.0077058966630883  0.6937540131872730
  0.1061188046564015  0.9907020055126610  0.1731049247870506
  0.8682698268429815 -0.0086269924259588  0.4233783576768717
  0.6357245127828681  0.9993872750966154  0.1794488927109656
  0.3841307302075977 -0.0092429202960255  0.9580476152712630
  0.8692163594623904 -0.0041329876338088  0.9470856749798765
  0.6368184423345847  0.9897127261267811  0.7120165840721110
  0.0044911935004123  0.3041861992903698  0.0584273296417446
  0.2479945690978620  0.6905391684050830  0.0666263690776921
  0.2463178992859856  0.2963130183935501  0.3084537227009043
  0.5020927926245821  0.6975136857075527  0.3151049628511499
  0.4978518431048571  0.3016353733764107  0.0645645736996196
  0.7485229298630531  0.6883533251644238  0.0681208543833916
  0.7446706362799101  0.3088299665480850  0.3141888622601419
  0.9996088410303616  0.6848495452495534  0.3161710129256782
  0.0009252604223429  0.2933925167075068  0.5549395266797185
  0.2503663331630566  0.6966538238937948  0.5711168375337506
  0.2596458785619832  0.2974867586846821  0.8107570092663383
  0.4978488135232819  0.6812063142542061  0.8164259496683896
  0.5033423510617878  0.2935349947769200  0.5696568634766939
  0.7462053786736651  0.6869082172709299  0.5652049140791892
  0.7566410012245838  0.3019438122499716  0.8146679691853633
  0.9970690459827423  0.6880018684110950  0.8183752719078657
  0.2489732007640330  0.3467191052679335  0.0639380889271818
 -0.0066447039073281  0.6477439119894295  0.0687090292784645
  0.4975449548171949  0.3319490613755321  0.3074014180005198
  0.2467274002876571  0.6955946306356420  0.3214958723991143
  0.7538171033365250  0.3402909641567429  0.0649218973546747
  0.5002197901780157  0.6637372803626876  0.0682837142708041
  1.0026299360186908  0.3530963772265645  0.3149071817690494
  0.7439638461803512  0.6362918103792020  0.3212539314673100
  0.2544502332966023  0.3178409923617083  0.5597803385914211
 -0.0031763629303016  0.6772340685636962  0.5675397578334872
  0.5049110571716064  0.3564293549376180  0.8172173412070660
  0.2478861926260898  0.6523296045025567  0.8213093097394530
  0.7489308807797255  0.3494367101167236  0.5640277761385001
  0.4971048810853793  0.6475633638934093  0.5709077356067463
  1.0033342249296704  0.3241502568744387  0.8097801340723115
  0.7508239109362447  0.6515194871537896  0.8168114327875602
  0.5084922471608285  0.0832023236173960  0.0647616656605619
  0.2438729262541436  0.9085351975162167  0.0617874576215781
  0.2125398820394748  0.0876656165826449  0.2904525915365321
 -0.0169058926442456  0.9024186702553105  0.3005694815028715
  0.9907413617305856  0.0852901337087967  0.0610449172409543
  0.7519391803865588  0.9079069395395544  0.0653519198672867
  0.7370340393038185  0.0860031377546447  0.3246794917889607
  0.5424207969630975  0.9046209969459799  0.3076631426532457
  0.5265264528028517  0.0801841187153467  0.5939753193409214
  0.2552632074000609  0.9083079994500843  0.5798047151128081
  0.3012849522898904  0.0918140966500756  0.8291745867743440
 -0.0246938672062222  0.9003786895980214  0.8276004957118123
  0.9777614654085173  0.0817265439981009  0.5413879169953177
  0.7385058061100006  0.9084563587746594  0.5546398979255461
  0.7542118581101446  0.0832979674727242  0.8208416408831548
  0.4965439707333777  0.9033196698885186  0.8128877445147551
