Li Mg Bi  S  O 
 1.0000000000000000
    11.1784999999999997    0.0000000000000000    0.0000000000000000
     0.0000000000000000    9.5746000000000002    0.0000000000000000
     0.0000000000000000    0.0000000000000000   11.1823999999999995
 Li  Mg  Bi  S   O  
  12   2  16  16  16
Direct
  0.3388145453235445 -0.0155566218075745  0.4149625884672964
  0.9086552399705918  0.0098891469321094  0.4286322130858501
  0.6002909159420000  0.9937082354106413  0.1781470650534479
  0.8669740099526660  0.0006389593580049  0.1857790726276343
  0.1248968820272397  0.9993975587442213  0.9287402961519570
  0.3686003482609800  0.0031527922486470  0.9543867070259887
  0.1312721821154693  1.0055321271882145  0.6665900165902149
  0.3785723226614864 -0.0001607424293928  0.6942054710971853
  0.6244186488119566  1.0014693198374984  0.9338053455262908
  0.8766486814711140  0.0005861046206558  0.9383476771542536
  0.6247091324224868  1.0026319980764573  0.6938782279088286
  0.8749634962496325  0.0018292678904042  0.6876107446845435
  0.1273531851117757  0.9986702383559166  0.1881810779631014
  0.6330709965881947  1.0055101210055730  0.4430523993168221
  0.0015853142490552  0.3069841479303912  0.0643834521389980
  0.2485097913406585  0.6977412885730696  0.0621796210491591
  0.2494698075873876  0.2984667168878182  0.3149995059713900
  0.5028778905785835  0.6992929888596487  0.3157544280285123
  0.5016608209060108  0.2941984099134020  0.0611755679391729
  0.7490066760181229  0.7059155778679049  0.0629601790076284
  0.7515652809626033  0.3079048526741778  0.3144169888666346
  0.9992768999268501  0.6994646425751585  0.3112102138507475
  0.0000898948678222  0.2979379242456980  0.5668479199253231
  0.2529764363420636  0.7072971154298393  0.5660573296377586
  0.2516150064788656  0.2972945849507940  0.8133143744548698
  0.5000317892045416  0.7044919150373886  0.8142403528697405
  0.5040680198470472  0.3085539763131170  0.5651870368166254
  0.7513224509553434  0.6981641850485970  0.5651320775803395
  0.7511820879494733  0.2962765668796581  0.8154780250497690
  0.9998609847406142  0.7069395244118336  0.8132734071080991
  0.2510160197612211  0.3444119477265587  0.0669373096400038
 -0.0006333594477543  0.6467215685757131  0.0647094328969334
  0.5028952288313707  0.3367589696404460  0.3161442764315091
  0.2496127561160340  0.6893632475957440  0.3152869853819428
  0.7516580093172713  0.3429457339288379  0.0650548459973072
  0.4991901838449339  0.6695392932262564  0.0648005638408461
  1.0015697928304907  0.3441644414575621  0.3147814694142938
  0.7496313931787001  0.6530986955133072  0.3138253017147379
  0.2526308022180038  0.3334655891591912  0.5640329307156907
 -0.0003557389203415  0.6732143628734071  0.5632318029469788
  0.5017085266389079  0.3492266079697219  0.8143171191382943
  0.2487233221913784  0.6530735601710620  0.8138151227524126
  0.7546618419876695  0.3538872668268435  0.5642505468532101
  0.5011973232248932  0.6501029398188575  0.5627506426995055
  1.0020007177814643  0.3448210710224797  0.8151968582625001
  0.7499650419378132  0.6584625769525437  0.8150713098030753
  0.5098347865934671  0.0808317062948385  0.0468773546186910
  0.2263242902467771  0.9144807360321643  0.0538285087931493
  0.2391780854362890  0.0854404493699407  0.3037372456919484
 -0.0091328548938436  0.9167849762891097  0.2876178972309230
  1.0057663265132368  0.0852381005510265  0.0685738024328959
  0.7511619993211496  0.9240042380707003  0.0632019092415754
  0.7534975769090159  0.0870664232275321  0.3262166461633174
  0.5203496360027049  0.9156751744098355  0.3291075716421740
  0.5237900680048320  0.0906976555817037  0.5666728069166768
  0.2694191327394289  0.9208166242148980  0.5754027149196917
  0.2526557047181947  0.0800377207215693  0.8166040176036832
 -0.0024622455429575  0.9240187711039328  0.8178234009608736
  0.9884523824825847  0.0839044323881172  0.5740732248926412
  0.7434908392987629  0.9189477120223114  0.5649339990544660
  0.7510927569493955  0.0785130381736754  0.8130346440118396
  0.5030748812447379  0.9214824285736374  0.8098035247936821
