Li8 Mg4 Bi16 S16 O16                    
   1.00000000000000     
    11.2384611345380208   -0.0585335932556131    0.0505673326464214
    -0.0509546674931621    9.5737078474184063   -0.0001731766910198
     0.0503985101695166    0.0010748538932609   11.2237422289462554
   Li   Mg   Bi   S    O 
     8     4    16    16    16
Direct
  0.4149308541038997  0.0157982538221085  0.4122077635665520
  0.1547771474912275 -0.0179187890101334  0.2257972347245218
  0.3810595234529325  0.0006549806602579  0.1726010977495765
  0.8903104799828524  0.0185225128213424  0.3260985260378674
  0.1635648167821510  0.0226900502902784  0.9581077265338988
  0.1202507920550679 -0.0177051586822441  0.5880897681917714
  0.6025814229188208  0.0090628860920883  0.9187800014508449
  0.6016378608165903  0.9750504750795796  0.6377448614756691
  0.6349955520059073 -0.0026627449264528  0.1847017322848043
  0.3680553773660559  0.0010608638614962  0.7022819721060086
  0.8727990218767586  0.0006434672238740  0.9611710798944687
  0.8689507725046073  0.0006598952479005  0.7020547566825501
  0.0071846152365106  0.3078257193555499  0.0668919104367313
  0.2512014595435100  0.7043759740904879  0.0697205425588230
  0.2559333172615357  0.2949061690635415  0.3153903509997515
  0.5032430006685252  0.6959223317797772  0.3095841135675413
  0.5046499997014992  0.3050484523166704  0.0672468485269675
  0.7511992032287547  0.6873308616048053  0.0676199964740680
  0.7514517593474868  0.3089209166808872  0.3147638275823176
  0.0079162641186327  0.6959969839677154  0.3157582760350273
 -0.0004421577185297  0.3061980456134347  0.5707124215061018
  0.2572923338860623  0.6872397571918606  0.5691050541783209
  0.2534893371779893  0.3067327654477933  0.8168523288063709
  0.5012033056042982  0.6991225979052504  0.8107756218936676
  0.4990952962826863  0.3054311430886815  0.5681101745619435
  0.7562597875330912  0.6934905572305115  0.5700235651724503
  0.7554737083686166  0.3154577684293701  0.8195560667429819
 -0.0031314678550572  0.6873205036835969  0.8197253678539923
  0.2521058048743978  0.3426716238631447  0.0679474218421036
  0.0058134055405191  0.6543491529684374  0.0677254321251848
  0.5055438524806039  0.3518033858604076  0.3174749012672223
  0.2564737074746561  0.6504221561923682  0.3171788337988792
  0.7521967261087478  0.3565714463861631  0.0675928830379629
  0.5076401665598389  0.6497251540610410  0.0679118149743689
  0.0024747373251700  0.2793859824041906  0.3193594146411343
  0.7548935837966374  0.6813125531658283  0.3149026737693861
  0.2520533344889210  0.3426948344610628  0.5689385576168524
  0.0089546580970816  0.6933712026628819  0.5710775869232574
  0.5024627559140501  0.3391954411599559  0.8167333081925996
  0.2581215594591963  0.6684983240708831  0.8180993400777254
  0.7519790358691093  0.3278047519560729  0.5693965612752271
  0.5091796172609020  0.6525947976092743  0.5692659230892805
  0.0012821148833132  0.3625735556676333  0.8172540393912229
  0.7536939764941694  0.6355511216268437  0.8168421660578868
  0.5241433599179381  0.0891215639038923  0.0711940115456616
  0.2443267148124625  0.9172314457012402  0.0848612912937002
  0.2869902906533152  0.0853955863186260  0.3043462723280336
  0.0196975000441116  0.9051291727280157  0.3048890148284140
  0.0101507982990766  0.0964600143508118  0.0322924778867126
  0.7386956195405494  0.9100861188087912  0.0542001742301251
  0.7434163531013432  0.0968341044026523  0.2905639780021517
  0.5029779391881549  0.9120267314270855  0.2847076607851773
  0.4765651861026684  0.0884434024216736  0.5732173762546813
  0.2704181612594871  0.9027558012329837  0.5814209048601727
  0.2546562181031825  0.0916813995026237  0.8139649171960581
 -0.0436815591566355  0.8999969023642023  0.8299664691977831
  0.9900865054737278  0.0954830657257702  0.6026048857556510
  0.7510467213686026  0.9038204878115321  0.6031736901140057
  0.7700070183354688  0.0935792564697703  0.8348240915311396
  0.5089207525867476  0.9166422227840799  0.7871989385146779
 
  0.00000000E+00  0.00000000E+00  0.00000000E+00
  0.00000000E+00  0.00000000E+00  0.00000000E+00
  0.00000000E+00  0.00000000E+00  0.00000000E+00
  0.00000000E+00  0.00000000E+00  0.00000000E+00
  0.00000000E+00  0.00000000E+00  0.00000000E+00
  0.00000000E+00  0.00000000E+00  0.00000000E+00
  0.00000000E+00  0.00000000E+00  0.00000000E+00
  0.00000000E+00  0.00000000E+00  0.00000000E+00
  0.00000000E+00  0.00000000E+00  0.00000000E+00
  0.00000000E+00  0.00000000E+00  0.00000000E+00
  0.00000000E+00  0.00000000E+00  0.00000000E+00
  0.00000000E+00  0.00000000E+00  0.00000000E+00
  0.00000000E+00  0.00000000E+00  0.00000000E+00
  0.00000000E+00  0.00000000E+00  0.00000000E+00
  0.00000000E+00  0.00000000E+00  0.00000000E+00
  0.00000000E+00  0.00000000E+00  0.00000000E+00
  0.00000000E+00  0.00000000E+00  0.00000000E+00
  0.00000000E+00  0.00000000E+00  0.00000000E+00
  0.00000000E+00  0.00000000E+00  0.00000000E+00
  0.00000000E+00  0.00000000E+00  0.00000000E+00
  0.00000000E+00  0.00000000E+00  0.00000000E+00
  0.00000000E+00  0.00000000E+00  0.00000000E+00
  0.00000000E+00  0.00000000E+00  0.00000000E+00
  0.00000000E+00  0.00000000E+00  0.00000000E+00
  0.00000000E+00  0.00000000E+00  0.00000000E+00
  0.00000000E+00  0.00000000E+00  0.00000000E+00
  0.00000000E+00  0.00000000E+00  0.00000000E+00
  0.00000000E+00  0.00000000E+00  0.00000000E+00
  0.00000000E+00  0.00000000E+00  0.00000000E+00
  0.00000000E+00  0.00000000E+00  0.00000000E+00
  0.00000000E+00  0.00000000E+00  0.00000000E+00
  0.00000000E+00  0.00000000E+00  0.00000000E+00
  0.00000000E+00  0.00000000E+00  0.00000000E+00
  0.00000000E+00  0.00000000E+00  0.00000000E+00
  0.00000000E+00  0.00000000E+00  0.00000000E+00
  0.00000000E+00  0.00000000E+00  0.00000000E+00
  0.00000000E+00  0.00000000E+00  0.00000000E+00
  0.00000000E+00  0.00000000E+00  0.00000000E+00
  0.00000000E+00  0.00000000E+00  0.00000000E+00
  0.00000000E+00  0.00000000E+00  0.00000000E+00
  0.00000000E+00  0.00000000E+00  0.00000000E+00
  0.00000000E+00  0.00000000E+00  0.00000000E+00
  0.00000000E+00  0.00000000E+00  0.00000000E+00
  0.00000000E+00  0.00000000E+00  0.00000000E+00
  0.00000000E+00  0.00000000E+00  0.00000000E+00
  0.00000000E+00  0.00000000E+00  0.00000000E+00
  0.00000000E+00  0.00000000E+00  0.00000000E+00
  0.00000000E+00  0.00000000E+00  0.00000000E+00
  0.00000000E+00  0.00000000E+00  0.00000000E+00
  0.00000000E+00  0.00000000E+00  0.00000000E+00
  0.00000000E+00  0.00000000E+00  0.00000000E+00
  0.00000000E+00  0.00000000E+00  0.00000000E+00
  0.00000000E+00  0.00000000E+00  0.00000000E+00
  0.00000000E+00  0.00000000E+00  0.00000000E+00
  0.00000000E+00  0.00000000E+00  0.00000000E+00
  0.00000000E+00  0.00000000E+00  0.00000000E+00
  0.00000000E+00  0.00000000E+00  0.00000000E+00
  0.00000000E+00  0.00000000E+00  0.00000000E+00
  0.00000000E+00  0.00000000E+00  0.00000000E+00
  0.00000000E+00  0.00000000E+00  0.00000000E+00
