Li Mg Bi  S  O 
 1.0000000000000000
    11.1784999999999997    0.0000000000000000    0.0000000000000000
     0.0000000000000000    9.5746000000000002    0.0000000000000000
     0.0000000000000000    0.0000000000000000   11.1823999999999995
 Li  Mg  Bi  S   O  
  10   3  16  16  16
Direct
  0.3596306345297790  0.0068986820285615  0.4466395303395000
  0.1179110203182332  1.0057188194341484  0.2081194421180262
  0.6291056306038816  1.0044435717120197  0.4399592339836328
  0.8868851233486729 -0.0011663141368167  0.4392552747260333
  0.6318323204880224  0.9994713365731569  0.1967790207435522
  0.8775666445864031 -0.0029271567594542  0.1688265095891948
  0.1264841288275062  0.9989114359190792  0.6768448204378766
  0.3716771082697080 -0.0028224547009604  0.7089260809050746
  0.6260414572837871  0.9999163104319874  0.6807727491849983
  0.8788118351782760  0.0025715202443134  0.7049713853021391
  0.3779748012584611 -0.0004032267410556  0.1695088281599796
  0.1291138655891937  0.9985945641201122  0.9397462430218582
  0.6237982976411771  1.0037759171027771  0.9372533641104150
  0.0028690501341870  0.3022091268660172  0.0633287077753609
  0.2486360704193299  0.6896839362395295  0.0628245114217287
  0.2516953696590749  0.3031120934786198  0.3115496474653395
  0.4999411552091560  0.6990586654940347  0.3107520502066869
  0.5015659112985402  0.3102870658637119  0.0607430519896277
  0.7498072450268891  0.7017160466792646  0.0628034597806268
  0.7498467161286665  0.2984357111752201  0.3137428190315261
  0.9965889621586264  0.7078562452963904  0.3127525288290552
 -0.0039336159787035  0.2893294721762041  0.5621917405727623
  0.2537615782356696  0.7092860491888380  0.5645436492180428
  0.2458006195280725  0.3050225308074969  0.8071611438356342
  0.5061761590829233  0.6983684475008634  0.8094913707197618
  0.4995453176633491  0.2952054023686034  0.5603398377350717
  0.7513451891590084  0.7052336989531630  0.5612252152097930
  0.7478085044122197  0.3036315580018905  0.8107717362079981
  1.0051896350103455  0.6955256974438855  0.8108456829455318
  0.2517159746147019  0.3477784086416223  0.0604812816920426
  0.0028723162967042  0.6573643099017821  0.0617652430392894
  0.4996067900930938  0.3520740030688662  0.3089642993533154
  0.2527861650474946  0.6624275270721641  0.3127096669805857
  0.7494251864669065  0.3386445239208101  0.0610718460482007
  0.5022890540354698  0.6564871740831858  0.0620234688211682
  1.0007420539572645  0.3365550742198394  0.3105174778707391
  0.7506267508936065  0.6552877197908744  0.3119370135493785
  0.2517296811155981  0.3346282726131753  0.5600768386041912
  0.0003609006348347  0.6604822422517668  0.5638284388778407
  0.4995493055404438  0.3406127926321207  0.8130893989867679
  0.2536776875664919  0.6552384247221114  0.8153516297108572
  0.7487113869675441  0.3477880044664191  0.5615418179648927
  0.5019798532013948  0.6555819644800995  0.5618170039105472
  0.9986961216468058  0.3442144930404000  0.8137911406418800
  0.7514914269145674  0.6599111823240487  0.8148312367339553
  0.5117515461082672  0.0865072332662397  0.0681914150662527
  0.2419903693583848  0.9135197962492608  0.0702632827599585
  0.2701052918369946  0.0870365493932991  0.2923047215697183
 -0.0189105822245220  0.9204367490138821  0.2971012397499500
  1.0236767989483726  0.0856406149744437  0.0676590622460687
  0.7292511013872437  0.9190790328947461  0.0670517537812343
  0.7443105403268012  0.0816962325391921  0.3156694390263103
  0.4940646313342905  0.9194402390087968  0.2953098260976426
  0.5027206010666577  0.0783993406569553  0.5566227129524359
  0.2668133273905168  0.9216509139353457  0.5804433857544818
  0.2315003834937645  0.0880801747320469  0.8105485550505871
  0.0234216411878764  0.9119882510398244  0.8107146172010663
  0.9842913291474505  0.0770818006814863  0.5782333336867352
  0.7476750286977875  0.9218283556834125  0.5613791915224781
  0.7309662395798343  0.0864392920644727  0.8074548671231182
  0.5187232560759900  0.9163553879647193  0.8086556846195728
