Li Mg Bi  S  O 
 1.0000000000000000
    11.1784999999999997    0.0000000000000000    0.0000000000000000
     0.0000000000000000    9.5746000000000002    0.0000000000000000
     0.0000000000000000    0.0000000000000000   11.1823999999999995
 Li  Mg  Bi  S   O  
   4   6  16  16  16
Direct
  0.3297193494673270  0.0132997362163578  0.5751023035044793
  0.0933859533607732  1.0233762794642036  0.1015236541774635
  0.3375846954294092  0.0409820826724121  0.2035603075032929
  0.8544126054277461  0.0416617789251859  0.1973360865144866
  0.8429351933783632 -0.0081705297656441  0.4676949170457544
  0.6031908692699456  1.1039884775018702  0.1793971228856207
  0.4034091046579444  0.0587310521003828  0.9205259071100735
  0.1321717280633213  1.0418483297693251  0.7440882475147594
  0.9187363055588704  0.0095937794939918  0.8706583583338469
  0.6622408334440391  1.0146096079275859  0.6512964114383268
 -0.0003311638352945  0.3132743528010921  0.0809210719686362
  0.2433057418561142  0.7602703197765625  0.0816326946220250
  0.2568824248343700  0.3194034781926975  0.3029720183642977
  0.4555915564122916  0.7850312230846750  0.3088433220544025
  0.4988983434425520  0.3805008740990893  0.0389257711368494
  0.7030691198081656  0.7956297721702174  0.0903997165246291
  0.7325432818043751  0.3670126881975672  0.3231925845047151
  0.9372224557165937  0.7036719577840512  0.3188329406086139
  0.0026427951839656  0.2504933711804530  0.5531322047134148
  0.1967566613227422  0.7270066623805946  0.5855818585458088
  0.2483894379059848  0.3519349118542905  0.7959258843715126
  0.4847608117755664  0.7492920649071891  0.8200544406629694
  0.4925471149530282  0.2780609217506501  0.5658161105909579
  0.7108137617802933  0.6607436971834086  0.5788853085410053
  0.7476960350992737  0.2847718259886198  0.8195185258819215
  0.9749435335433497  0.6741521454563723  0.8548824860963042
  0.2657232702715778  0.3692826302627426  0.0530540058809892
 -0.0246818503899775  0.6457355614294349  0.0859821610816016
  0.5033809903517412  0.3605339222683945  0.2936676999898002
  0.1638849524744884  0.6801034330811628  0.3329856215630588
  0.7570713444212839  0.3765253858375492  0.0402353056814741
  0.4736320849620484  0.6492825513957600  0.0749539257708897
  0.9877001975222630  0.2899479766864210  0.3194439592588039
  0.6927231174406828  0.6638624082249175  0.3038366359384952
  0.2453528180561587  0.2524094798847133  0.5564947144987583
 -0.0424642721323024  0.5511838008503627  0.5703806998089649
  0.5253688165858780  0.3912342178524892  0.7783774169657076
  0.2221831069314131  0.6225534613319164  0.8244028582753923
  0.7475801678420574  0.2266494248570520  0.5705465194960685
  0.4692046863432663  0.6824531552470705  0.5685284883029676
  1.0094611388679329  0.2336514728904268  0.8291954246158798
  0.7207689397138867  0.7354310845746874  0.8602790963919137
  0.5112689339334687  0.1651097399745601  0.0276790492827205
  0.3293153859746500  0.9386091013835632  0.0484897124228087
  0.2138482159415011  0.1376322218957470  0.2228454995131783
 -0.0912796855269312  0.9128631522202106  0.3220237065535029
  0.9511411832876674  0.1038446344055375  0.0672973164476282
  0.7255338043172892  1.0062385790861970  0.0932166910878174
  0.7074077589339672  0.1402366176941762  0.3149535430136700
  0.4816505412282425  0.9828220977584207  0.2539777955775344
  0.4996794682248312  0.0727564653394237  0.5793633726749813
  0.1966929433103040  0.9347035151160882  0.6152709513148695
  0.2793211680381981  0.1339194739198045  0.8048750495444048
  0.0597979385180704  0.8863002996087860  0.8598926379962645
  0.9821155119200635  0.0328544438259432  0.6186169246477031
  0.7271144361485716  0.8702199699652566  0.5507597458623120
  0.7653992527736774  0.0584221056629500  0.8004176315461710
  0.4937798214385262  0.9547410746650755  0.7987758518335950
