Li Mg Bi  S  O 
 1.0000000000000000
    11.1784999999999997    0.0000000000000000    0.0000000000000000
     0.0000000000000000    9.5746000000000002    0.0000000000000000
     0.0000000000000000    0.0000000000000000   11.1823999999999995
 Li  Mg  Bi  S   O  
  12   2  16  16  16
Direct
  0.3530388729763326  0.0005134740858121  0.4379630571673017
  0.1248774913334256  1.0027902855530462  0.1855352915312287
  0.3760419576376626 -0.0042145786388459  0.1933139011079965
  0.6200388355500649  1.0004260113237216  0.4375731189854928
  0.6253255466964482  0.9968449091929330  0.1878676363145306
  0.8741765546949095 -0.0027964840088921  0.1824306677642441
  0.1243371406544220  0.9975057556135447  0.6877941706131475
  0.3763647293540044  0.0045226190414833  0.6825655274478233
  0.6299658256471132  1.0000561072223992  0.9372873296778238
  0.8957785230924729  0.0002755347804901  0.9368915346720823
  0.6243605616019945  1.0037691558024435  0.6864748145119272
  0.8729097592308325  0.0023282815314681  0.6917493813725565
  0.8812153334713158  0.0003099608237105  0.4374222262542119
  0.3692413032995769  0.0002853887265016  0.9376210622664132
 -0.0019101399758363  0.2929010624016457  0.0628254710614613
  0.2510947019190750  0.6985252800894897  0.0635739098555354
  0.2500903132109189  0.2918046525129260  0.3116109107867819
  0.4996435389856481  0.7042758029773422  0.3127888363382599
  0.4997441449059545  0.3032345907409152  0.0623047295374741
  0.7507887719376993  0.7047241680841716  0.0627763394254410
  0.7500347173645724  0.3039468892414442  0.3137110462032358
  1.0006473268816432  0.6977949004393057  0.3111449738819005
 -0.0010636246160767  0.3029184339720194  0.5645713810094524
  0.2509974791688247  0.7080243870560210  0.5641575218686540
  0.2502619634505589  0.3031430792511155  0.8118020455416129
  0.5006987244813372  0.6964203068941187  0.8134897779614449
  0.4987277678315705  0.2972200977263758  0.5624172475253009
  0.7499666974055672  0.6964837166107930  0.5611187736305119
  0.7496463456133393  0.2955735536539808  0.8123857217485521
  0.9989377023599555  0.7076274459055257  0.8124335282907821
  0.2520359957961492  0.3385302204546717  0.0613103573783028
 -0.0009694493292835  0.6618126073758952  0.0639543802676528
  0.5016676599651794  0.3406662268385341  0.3121614118178786
  0.2515357674934436  0.6652314086672220  0.3126607442428552
  0.7496803271300041  0.3409847822354947  0.0628857356917480
  0.5006791605127945  0.6534067611649224  0.0621808434171595
  0.9993299920673626  0.3370173953097850  0.3146478458484618
  0.7490857702337497  0.6510964565730253  0.3135231153191347
  0.2519321049752710  0.3357559758015696  0.5621465562805034
 -0.0002723572914230  0.6622767924395296  0.5607507671155313
  0.5007821819048394  0.3487601349183496  0.8132222266506012
  0.2508005950694419  0.6610034406860066  0.8155336888405101
  0.7511368582073967  0.3482709008719784  0.5623393477279529
  0.5004080834125125  0.6587513502883424  0.5634858471089885
  1.0000166172295526  0.3363241809190753  0.8127025965220797
  0.7498663479585143  0.6589863644763638  0.8122000614803523
  0.4954167051179215  0.0814499235912642  0.0528515239617765
  0.2716274220604945  0.9148123251888322  0.0678915604419652
  0.2601978147267432  0.0786993607163663  0.2992859410618033
 -0.0220031815937302  0.9136494773153256  0.3068798650690001
  0.9891374462920481  0.0795744694923602  0.0749907506698998
  0.7452286149776194  0.9225574031392461  0.0652069369719744
  0.7551472017241032  0.0819582180514705  0.3220823462514535
  0.5057599595383411  0.9220411222365905  0.3096943591567327
  0.5051072403796421  0.0790944623741540  0.5653219360708220
  0.2606561122165391  0.9212492298760441  0.5763799185662768
  0.2725401344420607  0.0870067360938129  0.8073146183272876
 -0.0110884432907696  0.9205688180066033  0.7992385766190716
  0.9778139152980060  0.0869146957311542  0.5684793873642846
  0.7548826379191322  0.9184454267648762  0.5522113277217772
  0.7441705440715110  0.0778673804313035  0.8088241358888215
  0.4950952701969689  0.9185583870945733  0.8220230822463451
