Li2 Mg7 Bi16 S16 O16                    
   1.00000000000000     
    11.3024005146865587    0.0893026666826041   -0.0038293422768675
     0.0745779282631262    9.6319873563840126   -0.0025956796503563
    -0.0036158966001084   -0.0041575586533934   11.2767950781006494
   Li   Mg   Bi   S    O 
     2     7    16    16    16
Direct
  0.3255936084306418 -0.0295723414799663  0.2073290060632079
  0.5842492061618726  0.9821680727728439  0.1269086599080231
  0.8758454245010638  0.0030824739752181  0.4636384717349431
  0.8684917578381225 -0.0069110833015582  0.2041810913980358
  0.3789884657818147  0.0026744838573247  0.9200430845916198
  0.1276951679960011 -0.0000343917600843  0.6917493874808134
  0.3772010364919599  0.0025962293740145  0.6578877044740741
  0.6263442127300017  0.0056706348753682  0.6950389776719856
  0.8772811068027906  0.0026267677653509  0.7220314405992138
 -0.0003610890418874  0.2797917235136113  0.0743256136350547
  0.2579281504272448  0.6939706147619495  0.0581109931999697
  0.2518114523023943  0.2903268338663309  0.3074150023041806
  0.4990430918466758  0.7164152713685339  0.2973338331852935
  0.4991623577526800  0.3059541694338940  0.0575006660428576
  0.7535401635282485  0.6982208222194395  0.0747153915395553
  0.7532345540921660  0.3173122671016673  0.3154118930933515
 -0.0005982717411027  0.6838288080330266  0.3142397795762218
  0.0004149520381650  0.3153581511364175  0.5652567840701068
  0.2520976627806322  0.6877749371856210  0.5547538936438348
  0.2526386981514838  0.3179914344491109  0.8106327489117157
  0.5018913894378947  0.6865546591164241  0.8072249239389691
  0.5027139623717098  0.3162762343935132  0.5538040209598712
  0.7553084442124279  0.6901470445736944  0.5658971731276862
  0.7482976809644514  0.3210985379958845  0.8194140884479330
  0.0064029659880390  0.6845071599752501  0.8196142467580322
  0.2577042383761354  0.3399537196902506  0.0540331397970246
 -0.0007652227419172  0.6797187674926938  0.0642670381301302
  0.5081411741353188  0.3122104639590396  0.3128365929743238
  0.2495889132395308  0.6935548622626870  0.3119751155960827
  0.7572513395362706  0.3426648075960649  0.0622937431742151
  0.5026223475696201  0.6359346297647563  0.0603159392407972
  0.0044319004030009  0.3595835498005810  0.3132047001144916
  0.7485117289827128  0.6384584140331621  0.3137741284688307
  0.2571431853494417  0.3407735963592675  0.5624846642306615
  0.0003288938693123  0.6370316990698817  0.5663597219038907
  0.5072517299803574  0.3699718344059959  0.8090979697108248
  0.2493875652064658  0.6384373160447027  0.8105102465964326
  0.7573366358546122  0.3678345556271198  0.5651876681113361
  0.5007480676220100  0.6697422661703295  0.5653387356751902
  0.0075392498508872  0.3349769460052014  0.8085343386946540
  0.7486636204219778  0.6739554171340416  0.8083620716746666
  0.4943114523190437  0.0973216435861121  0.0193705665154002
  0.2919948048533473  0.8995059731956919  0.0392288992582658
  0.2386467184019901  0.0878650448517590  0.3035741911185639
 -0.0532751691462698  0.8888859773457393  0.3383107221715237
  0.9775728139867769  0.0776502631760336  0.0950012444577767
  0.7404731260820669  0.9050224189746249  0.1124329635500531
  0.7961610172403982  0.1076420606425550  0.3363337509153832
  0.4878636558026125  0.9162359666426816  0.2527867168010078
  0.5101534943239709  0.1043219647499374  0.5952863646317631
  0.2448806240118929  0.8996077806961764  0.5952827417243808
  0.2693880297648993  0.0888099618581252  0.7859515638195516
  0.0111279249620512  0.8977748422289606  0.7846869061098057
  0.9841019964498229  0.0870538608202646  0.5939755002500876
  0.7691075416664681  0.9183859617924787  0.5947301792102889
  0.7443613388424477  0.1067926403071647  0.7873212242963796
  0.4850791109372382  0.9150312785130199  0.7846817747196967
 
  0.00000000E+00  0.00000000E+00  0.00000000E+00
  0.00000000E+00  0.00000000E+00  0.00000000E+00
  0.00000000E+00  0.00000000E+00  0.00000000E+00
  0.00000000E+00  0.00000000E+00  0.00000000E+00
  0.00000000E+00  0.00000000E+00  0.00000000E+00
  0.00000000E+00  0.00000000E+00  0.00000000E+00
  0.00000000E+00  0.00000000E+00  0.00000000E+00
  0.00000000E+00  0.00000000E+00  0.00000000E+00
  0.00000000E+00  0.00000000E+00  0.00000000E+00
  0.00000000E+00  0.00000000E+00  0.00000000E+00
  0.00000000E+00  0.00000000E+00  0.00000000E+00
  0.00000000E+00  0.00000000E+00  0.00000000E+00
  0.00000000E+00  0.00000000E+00  0.00000000E+00
  0.00000000E+00  0.00000000E+00  0.00000000E+00
  0.00000000E+00  0.00000000E+00  0.00000000E+00
  0.00000000E+00  0.00000000E+00  0.00000000E+00
  0.00000000E+00  0.00000000E+00  0.00000000E+00
  0.00000000E+00  0.00000000E+00  0.00000000E+00
  0.00000000E+00  0.00000000E+00  0.00000000E+00
  0.00000000E+00  0.00000000E+00  0.00000000E+00
  0.00000000E+00  0.00000000E+00  0.00000000E+00
  0.00000000E+00  0.00000000E+00  0.00000000E+00
  0.00000000E+00  0.00000000E+00  0.00000000E+00
  0.00000000E+00  0.00000000E+00  0.00000000E+00
  0.00000000E+00  0.00000000E+00  0.00000000E+00
  0.00000000E+00  0.00000000E+00  0.00000000E+00
  0.00000000E+00  0.00000000E+00  0.00000000E+00
  0.00000000E+00  0.00000000E+00  0.00000000E+00
  0.00000000E+00  0.00000000E+00  0.00000000E+00
  0.00000000E+00  0.00000000E+00  0.00000000E+00
  0.00000000E+00  0.00000000E+00  0.00000000E+00
  0.00000000E+00  0.00000000E+00  0.00000000E+00
  0.00000000E+00  0.00000000E+00  0.00000000E+00
  0.00000000E+00  0.00000000E+00  0.00000000E+00
  0.00000000E+00  0.00000000E+00  0.00000000E+00
  0.00000000E+00  0.00000000E+00  0.00000000E+00
  0.00000000E+00  0.00000000E+00  0.00000000E+00
  0.00000000E+00  0.00000000E+00  0.00000000E+00
  0.00000000E+00  0.00000000E+00  0.00000000E+00
  0.00000000E+00  0.00000000E+00  0.00000000E+00
  0.00000000E+00  0.00000000E+00  0.00000000E+00
  0.00000000E+00  0.00000000E+00  0.00000000E+00
  0.00000000E+00  0.00000000E+00  0.00000000E+00
  0.00000000E+00  0.00000000E+00  0.00000000E+00
  0.00000000E+00  0.00000000E+00  0.00000000E+00
  0.00000000E+00  0.00000000E+00  0.00000000E+00
  0.00000000E+00  0.00000000E+00  0.00000000E+00
  0.00000000E+00  0.00000000E+00  0.00000000E+00
  0.00000000E+00  0.00000000E+00  0.00000000E+00
  0.00000000E+00  0.00000000E+00  0.00000000E+00
  0.00000000E+00  0.00000000E+00  0.00000000E+00
  0.00000000E+00  0.00000000E+00  0.00000000E+00
  0.00000000E+00  0.00000000E+00  0.00000000E+00
  0.00000000E+00  0.00000000E+00  0.00000000E+00
  0.00000000E+00  0.00000000E+00  0.00000000E+00
  0.00000000E+00  0.00000000E+00  0.00000000E+00
  0.00000000E+00  0.00000000E+00  0.00000000E+00
