Li Mg Bi  S  O 
 1.0000000000000000
    11.1784999999999997    0.0000000000000000    0.0000000000000000
     0.0000000000000000    9.5746000000000002    0.0000000000000000
     0.0000000000000000    0.0000000000000000   11.1823999999999995
 Li  Mg  Bi  S   O  
  12   2  16  16  16
Direct
  0.3558592194087589  0.0052831270828211  0.4588971906782132
  0.1307418000853852  0.9968668870139710  0.2031886293744410
  0.3787876810770372 -0.0004885008194352  0.1864764190045680
  0.6247631280453084  1.0017520926390131  0.4293807461293766
  0.8957714233722911  0.0056983159496179  0.4313663596986444
  0.6243272100606300  0.9997430876113880  0.1894545512245942
  0.8749028389997272  0.0004019253354358  0.1846684064344567
  0.1244928504604094  1.0025028550621891  0.9454056634844840
  0.3712476418501318 -0.0012267675492067  0.9216871605528010
  0.6228711382303491  0.9978703318330263  0.9457099574086154
  0.8763485293204574  0.0009613768227137  0.9356219514603707
  0.8733849861569181 -0.0011023285445770  0.6864822015221497
  0.1303193743527730  1.0010391648450967  0.6833053030394541
  0.6176306301840425  0.9997858527668253  0.6878182681614649
 -0.0013041029338143  0.2957732282069988  0.0624781872391597
  0.2508971590481392  0.7048818190872722  0.0630098113734041
  0.2523848775736076  0.2912609334487969  0.3101770093945996
  0.5008329256603278  0.7032578838280955  0.3107817510034672
  0.4989914728027323  0.2950230014338210  0.0627053879817355
  0.7512765094977312  0.7060780602856160  0.0629146877768022
  0.7501900058172425  0.2962709667197022  0.3113513286158460
  0.9993592466760625  0.7078822690167755  0.3102924669180844
  0.0008326647809371  0.3004913326908266  0.5622335647672732
  0.2500344253721263  0.6996124523532299  0.5620476456022123
  0.2463325312063413  0.3021045755119227  0.8148290279267882
  0.5015542771685324  0.6980778714383231  0.8143198217484515
  0.5017415185917786  0.3025216745453466  0.5600135131380314
  0.7488600433208507  0.6945257563042512  0.5637662657229394
  0.7485916564821929  0.3043457292476346  0.8112166583948832
  1.0015690841590423  0.6951080210580058  0.8112365336980394
  0.2503449484966507  0.3464567590282881  0.0619099224731043
 -0.0000430378323739  0.6576103696486281  0.0614574419634726
  0.5013950657562123  0.3478939845933685  0.3123769313094101
  0.2507433142122636  0.6644180996165358  0.3123226751935916
  0.7504041766146839  0.3415836493072572  0.0612525878050074
  0.5010388548808621  0.6552970394578971  0.0611555175198219
  1.0006976855920779  0.3329986738198674  0.3126955023655543
  0.7499489932975435  0.6558401849172142  0.3135683293658329
  0.2504257159963000  0.3189996734851115  0.5639349638644643
  0.0001719597055617  0.6575248774630489  0.5642683120849175
  0.5015740827468567  0.3329688432122478  0.8110346625433571
  0.2497523530121377  0.6581241248696102  0.8127208458552331
  0.7508568317862876  0.3498231449986144  0.5631529231650384
  0.5004453899432568  0.6609302213971047  0.5650016004374048
  1.0015124701200462  0.3515678298998643  0.8116905781773417
  0.7493668418786883  0.6520005492870665  0.8125383792202600
  0.5010747592445413  0.0776494202527715  0.0624090478964710
  0.2508693366857731  0.9219820682913449  0.0593716917265429
  0.2662180093623856  0.0788841102535871  0.3004613095418868
 -0.0117621574051560  0.9210315626896878  0.2979563690300425
  0.9963623163252758  0.0785558321452361  0.0560587928314603
  0.7504981175917912  0.9242469667418959  0.0597842937664063
  0.7508287453770484  0.0785276122511614  0.3128349652296277
  0.5083509498138712  0.9191925828054822  0.3070508297975062
  0.5210095915765169  0.0852669884070138  0.5553478002206592
  0.2456457268279488  0.9130310981020940  0.5714504824274439
  0.2276153821512066  0.0847615908797638  0.8203332311489433
  0.0050191871382819  0.9171596716345687  0.8040781397368167
  0.9931899033454639  0.0832259476125247  0.5823784743922600
  0.7425135144437799  0.9154747463108375  0.5751022715158982
  0.7450678307614759  0.0817250845311975  0.8033946709939143
  0.5186730085047874  0.9160063490542223  0.8205134115132979
