Li10 Mg3 Bi16 S16 O16                   
   1.00000000000000     
    11.2086920067241405   -0.0409434720593015    0.0130693081111887
    -0.0345776810951847    9.4829089247539091   -0.0209916040044234
     0.0131003604570608   -0.0249361477716885   11.2187049233723943
   Li   Mg   Bi   S    O 
    10     3    16    16    16
Direct
  0.3550020952571918 -0.0207872343295985  0.4232749849057793
  0.1496899385774733  0.9730049256472704  0.2179465387250156
  0.6234122276133937 -0.0036144412548853  0.4400172890625391
  0.8755140785631971 -0.0016511478160399  0.4331710759591788
  0.5722227574652249  0.0361193627473048  0.2211151169680405
  0.8756661559862011  0.0063295504078786  0.1862097953106970
  0.1266448448011826 -0.0088458813875113  0.9366950659267724
  0.1082923637301611  0.9735571790828098  0.5801218093184668
  0.3807219950347808  0.0005736050556572  0.6904322683115859
  0.6736934155101337  0.0320545962303349  0.6591558214239612
  0.3700840537863269  0.0003745299989918  0.9628758931852116
  0.6241301045378618  0.0039065135187093  0.9398669086148828
  0.8798297714486193  0.0065582248586539  0.9208346832355967
 -0.0019923584874246  0.3092735190707028  0.0621610133684685
  0.2465553002116984  0.6878072459656044  0.0666262599082019
  0.2483490264083189  0.2879999561256947  0.3189104377583115
  0.4998418100992321  0.7014315955071508  0.3214717599924710
  0.4983958548540858  0.3204952867334958  0.0679648151666409
  0.7527380489945638  0.6919463503147223  0.0590674164615266
  0.7503784316643055  0.3018548951749171  0.3133749284354331
 -0.0033443516045079  0.6992978935533988  0.3112705140934048
 -0.0014208183146106  0.2998433767648556  0.5572926723509503
  0.2570902437858907  0.6931249756655821  0.5648989267380943
  0.2510975565868663  0.3013530149889772  0.8168598646994321
  0.4972630069491857  0.6875629165890960  0.8192229999735673
  0.5021009819928777  0.3007157330049465  0.5681552844480285
  0.7532324678938934  0.7046301124604589  0.5559929177560682
  0.7514528048245754  0.3200708052255458  0.8124909851906363
  0.0020268650420770  0.6898167304922938  0.8119870023161024
  0.2512847172713049  0.3375546965491567  0.0651359528846216
 -0.0002011637524340  0.6423631314931555  0.0618180193381475
  0.5009163429739608  0.3269602963543973  0.3120076499266021
  0.2497675868657654  0.6801531519308740  0.3137284352981274
  0.7485197817601107  0.3552743934445197  0.0623370191803456
  0.5015929449367010  0.6580801649375091  0.0654223619074316
  0.9989563681683331  0.3439491575209998  0.3091369849985220
  0.7482667204417572  0.6509199932507315  0.3123246299947677
  0.2514511131937210  0.3295282744175739  0.5678799574431893
  0.0068516684426491  0.7098972447822156  0.5637407020213574
  0.4992053964021524  0.3559813175970217  0.8163113619187906
  0.2520957596395422  0.6463224111950945  0.8158038332080010
  0.7495405855431768  0.3451101702736212  0.5654226612704676
  0.5052878227552735  0.6498389961810118  0.5664672885854811
  0.9966810657434305  0.3268379011775434  0.8126532756480035
  0.7500988838916105  0.6564047408931070  0.8143737257411923
  0.5082621562292979  0.0924019444266990  0.0533520502663284
  0.2390893830696600  0.9078115965669469  0.0535793410863552
  0.2510369872644169  0.0772210699766192  0.3181384972318519
 -0.0138058582250269  0.9125938974057218  0.2879217169666363
  0.9803080746041218  0.0899394212767143  0.0490566718173165
  0.7569737221819026  0.9147159843483470  0.0319094051422335
  0.7410794900554687  0.0835532331537235  0.3027896942542957
  0.5038488351863964  0.9164847364928035  0.3374996379394553
  0.5186571056987324  0.0854719302391272  0.5859743294414534
  0.2730140854030191  0.9097649183986045  0.5729580503043028
  0.2715566566633960  0.0847361360991844  0.8363667023620303
  0.0049399611315616  0.9032294814953987  0.8403459480901564
  0.9867756454580280  0.0904423005182546  0.5404459633494409
  0.7432592500882498  0.9181607960145078  0.5389710746878220
  0.7404795205107835  0.0925533291827310  0.8270180647962467
  0.4909307171901648  0.9108389920090433  0.8491139432939929
 
  0.00000000E+00  0.00000000E+00  0.00000000E+00
  0.00000000E+00  0.00000000E+00  0.00000000E+00
  0.00000000E+00  0.00000000E+00  0.00000000E+00
  0.00000000E+00  0.00000000E+00  0.00000000E+00
  0.00000000E+00  0.00000000E+00  0.00000000E+00
  0.00000000E+00  0.00000000E+00  0.00000000E+00
  0.00000000E+00  0.00000000E+00  0.00000000E+00
  0.00000000E+00  0.00000000E+00  0.00000000E+00
  0.00000000E+00  0.00000000E+00  0.00000000E+00
  0.00000000E+00  0.00000000E+00  0.00000000E+00
  0.00000000E+00  0.00000000E+00  0.00000000E+00
  0.00000000E+00  0.00000000E+00  0.00000000E+00
  0.00000000E+00  0.00000000E+00  0.00000000E+00
  0.00000000E+00  0.00000000E+00  0.00000000E+00
  0.00000000E+00  0.00000000E+00  0.00000000E+00
  0.00000000E+00  0.00000000E+00  0.00000000E+00
  0.00000000E+00  0.00000000E+00  0.00000000E+00
  0.00000000E+00  0.00000000E+00  0.00000000E+00
  0.00000000E+00  0.00000000E+00  0.00000000E+00
  0.00000000E+00  0.00000000E+00  0.00000000E+00
  0.00000000E+00  0.00000000E+00  0.00000000E+00
  0.00000000E+00  0.00000000E+00  0.00000000E+00
  0.00000000E+00  0.00000000E+00  0.00000000E+00
  0.00000000E+00  0.00000000E+00  0.00000000E+00
  0.00000000E+00  0.00000000E+00  0.00000000E+00
  0.00000000E+00  0.00000000E+00  0.00000000E+00
  0.00000000E+00  0.00000000E+00  0.00000000E+00
  0.00000000E+00  0.00000000E+00  0.00000000E+00
  0.00000000E+00  0.00000000E+00  0.00000000E+00
  0.00000000E+00  0.00000000E+00  0.00000000E+00
  0.00000000E+00  0.00000000E+00  0.00000000E+00
  0.00000000E+00  0.00000000E+00  0.00000000E+00
  0.00000000E+00  0.00000000E+00  0.00000000E+00
  0.00000000E+00  0.00000000E+00  0.00000000E+00
  0.00000000E+00  0.00000000E+00  0.00000000E+00
  0.00000000E+00  0.00000000E+00  0.00000000E+00
  0.00000000E+00  0.00000000E+00  0.00000000E+00
  0.00000000E+00  0.00000000E+00  0.00000000E+00
  0.00000000E+00  0.00000000E+00  0.00000000E+00
  0.00000000E+00  0.00000000E+00  0.00000000E+00
  0.00000000E+00  0.00000000E+00  0.00000000E+00
  0.00000000E+00  0.00000000E+00  0.00000000E+00
  0.00000000E+00  0.00000000E+00  0.00000000E+00
  0.00000000E+00  0.00000000E+00  0.00000000E+00
  0.00000000E+00  0.00000000E+00  0.00000000E+00
  0.00000000E+00  0.00000000E+00  0.00000000E+00
  0.00000000E+00  0.00000000E+00  0.00000000E+00
  0.00000000E+00  0.00000000E+00  0.00000000E+00
  0.00000000E+00  0.00000000E+00  0.00000000E+00
  0.00000000E+00  0.00000000E+00  0.00000000E+00
  0.00000000E+00  0.00000000E+00  0.00000000E+00
  0.00000000E+00  0.00000000E+00  0.00000000E+00
  0.00000000E+00  0.00000000E+00  0.00000000E+00
  0.00000000E+00  0.00000000E+00  0.00000000E+00
  0.00000000E+00  0.00000000E+00  0.00000000E+00
  0.00000000E+00  0.00000000E+00  0.00000000E+00
  0.00000000E+00  0.00000000E+00  0.00000000E+00
  0.00000000E+00  0.00000000E+00  0.00000000E+00
  0.00000000E+00  0.00000000E+00  0.00000000E+00
  0.00000000E+00  0.00000000E+00  0.00000000E+00
  0.00000000E+00  0.00000000E+00  0.00000000E+00
