Li8 Mg4 Bi16 S16 O16                    
   1.00000000000000     
    11.2143239087884705   -0.1023996528602395    0.0465635059866651
    -0.0889589794486631    9.5735152061228757   -0.0076420803190762
     0.0468568551833205   -0.0091258500817255   11.2126978718880679
   Li   Mg   Bi   S    O 
     8     4    16    16    16
Direct
  0.3597318786450194 -0.0241789371662689  0.3278359424330227
  0.6111778828103868 -0.0028206281461108  0.4538540416317909
  0.8442294142881381 -0.0264378526056831  0.3689301181579440
  0.6167974982678537  0.0060457365594276  0.2000376769174819
  0.1366279575331092 -0.0038601206725966  0.9235512513292820
  0.3673747401690793  0.0023011563778223  0.9662986633055368
  0.1135502054614630 -0.0227743194008077  0.5812182531118173
  0.8325412670995002  0.0316395014535211  0.6480256728396515
  0.1116026822482119 -0.0002033611612916  0.1822031899124512
  0.3892062951162004 -0.0053565376694197  0.7015279237731306
  0.6224192379774280 -0.0001369311206271  0.9251499768484844
  0.8839739409034909  0.0058789550264087  0.9538685910075466
  0.0052336879359292  0.3177365182680986  0.0699469666871965
  0.2482265302629221  0.6973143176497504  0.0680548594241109
  0.2462566724145541  0.3003705920782060  0.3147149341312405
  0.5054936413347927  0.6933607580980019  0.3187167470124379
  0.5053235626095546  0.3030447264873831  0.0685741939498782
  0.7500728379857439  0.6938086543380505  0.0626789749870496
  0.7467301713703147  0.3019207373519541  0.3197410497476269
  0.0031495574468184  0.6947188616428790  0.3164814842886294
  0.0010450387949113  0.3040510206475912  0.5710760027473760
  0.2566848767070971  0.6882754873648907  0.5732541218643423
  0.2580672909865148  0.3001876409871215  0.8185265066190237
  0.5012408217895086  0.6824655041380950  0.8181367672506279
  0.5028629391239218  0.2979650070934333  0.5687722032825620
  0.7543879351957136  0.7068498393445132  0.5588030755027533
  0.7579800007319204  0.3155793284340539  0.8201883615473735
  0.0020507712676810  0.6946332138816239  0.8199728057874033
  0.2507082324779710  0.3558545539042160  0.0711571328034195
  0.0080879445803743  0.6401530408207183  0.0706139051928034
  0.4963931643831618  0.3390253908854038  0.3177824319417917
  0.2575335638446273  0.7078138888134664  0.3202236667006955
  0.7498459306466330  0.3539175776677390  0.0693185676204342
  0.5091071998550705  0.6538714983252528  0.0689013907365887
 -0.0009418789912505  0.3349254244327392  0.3181079617160760
  0.7563362964102978  0.6513131224674494  0.3192205621575580
  0.2522285232712717  0.3263776202555262  0.5724235126281189
  0.0101749544881498  0.7067158676839975  0.5707262726972030
  0.5010579925092877  0.3517395028637612  0.8194545727399155
  0.2577982937917869  0.6409761687652820  0.8223548687205260
  0.7523173661475641  0.3377066663964760  0.5721275739741676
  0.5073209010462350  0.6567748988787994  0.5709098150458034
 -0.0000381607943570  0.3503279554749325  0.8211048132973507
  0.7565822326587688  0.6531256472592848  0.8202303204535455
  0.5179828330509778  0.0864244940785033  0.0486415147186643
  0.2251571448620099  0.9133077434868219  0.0565380957380829
  0.2335076750143008  0.0893733557465529  0.2878722260729872
 -0.0096616900373212  0.9057127179655886  0.2873026371051136
  0.0136248285914953  0.0951535044392817  0.0539531672001360
  0.7421494629739714  0.9124359024522936  0.0355408294477914
  0.7227067572936615  0.0906581176740434  0.3158246878032621
  0.5162940027456775  0.9080276321525750  0.3188177543645028
  0.4984620502135376  0.0846558445189535  0.5815346711846258
  0.2667846179796183  0.9005690438012576  0.6015995823307967
  0.2818756935862555  0.0844513562432826  0.8299881284988437
 -0.0015427336412253  0.9052185177681118  0.8543691424500819
  0.9844702912671086  0.0946292005320716  0.5856475908649268
  0.7548297469025482  0.9173062781889223  0.5306369897704614
  0.7631892577462743  0.0931238369292497  0.8391286034000316
  0.4923981686477405  0.9060147598474076  0.8304066545259494
 
  0.00000000E+00  0.00000000E+00  0.00000000E+00
  0.00000000E+00  0.00000000E+00  0.00000000E+00
  0.00000000E+00  0.00000000E+00  0.00000000E+00
  0.00000000E+00  0.00000000E+00  0.00000000E+00
  0.00000000E+00  0.00000000E+00  0.00000000E+00
  0.00000000E+00  0.00000000E+00  0.00000000E+00
  0.00000000E+00  0.00000000E+00  0.00000000E+00
  0.00000000E+00  0.00000000E+00  0.00000000E+00
  0.00000000E+00  0.00000000E+00  0.00000000E+00
  0.00000000E+00  0.00000000E+00  0.00000000E+00
  0.00000000E+00  0.00000000E+00  0.00000000E+00
  0.00000000E+00  0.00000000E+00  0.00000000E+00
  0.00000000E+00  0.00000000E+00  0.00000000E+00
  0.00000000E+00  0.00000000E+00  0.00000000E+00
  0.00000000E+00  0.00000000E+00  0.00000000E+00
  0.00000000E+00  0.00000000E+00  0.00000000E+00
  0.00000000E+00  0.00000000E+00  0.00000000E+00
  0.00000000E+00  0.00000000E+00  0.00000000E+00
  0.00000000E+00  0.00000000E+00  0.00000000E+00
  0.00000000E+00  0.00000000E+00  0.00000000E+00
  0.00000000E+00  0.00000000E+00  0.00000000E+00
  0.00000000E+00  0.00000000E+00  0.00000000E+00
  0.00000000E+00  0.00000000E+00  0.00000000E+00
  0.00000000E+00  0.00000000E+00  0.00000000E+00
  0.00000000E+00  0.00000000E+00  0.00000000E+00
  0.00000000E+00  0.00000000E+00  0.00000000E+00
  0.00000000E+00  0.00000000E+00  0.00000000E+00
  0.00000000E+00  0.00000000E+00  0.00000000E+00
  0.00000000E+00  0.00000000E+00  0.00000000E+00
  0.00000000E+00  0.00000000E+00  0.00000000E+00
  0.00000000E+00  0.00000000E+00  0.00000000E+00
  0.00000000E+00  0.00000000E+00  0.00000000E+00
  0.00000000E+00  0.00000000E+00  0.00000000E+00
  0.00000000E+00  0.00000000E+00  0.00000000E+00
  0.00000000E+00  0.00000000E+00  0.00000000E+00
  0.00000000E+00  0.00000000E+00  0.00000000E+00
  0.00000000E+00  0.00000000E+00  0.00000000E+00
  0.00000000E+00  0.00000000E+00  0.00000000E+00
  0.00000000E+00  0.00000000E+00  0.00000000E+00
  0.00000000E+00  0.00000000E+00  0.00000000E+00
  0.00000000E+00  0.00000000E+00  0.00000000E+00
  0.00000000E+00  0.00000000E+00  0.00000000E+00
  0.00000000E+00  0.00000000E+00  0.00000000E+00
  0.00000000E+00  0.00000000E+00  0.00000000E+00
  0.00000000E+00  0.00000000E+00  0.00000000E+00
  0.00000000E+00  0.00000000E+00  0.00000000E+00
  0.00000000E+00  0.00000000E+00  0.00000000E+00
  0.00000000E+00  0.00000000E+00  0.00000000E+00
  0.00000000E+00  0.00000000E+00  0.00000000E+00
  0.00000000E+00  0.00000000E+00  0.00000000E+00
  0.00000000E+00  0.00000000E+00  0.00000000E+00
  0.00000000E+00  0.00000000E+00  0.00000000E+00
  0.00000000E+00  0.00000000E+00  0.00000000E+00
  0.00000000E+00  0.00000000E+00  0.00000000E+00
  0.00000000E+00  0.00000000E+00  0.00000000E+00
  0.00000000E+00  0.00000000E+00  0.00000000E+00
  0.00000000E+00  0.00000000E+00  0.00000000E+00
  0.00000000E+00  0.00000000E+00  0.00000000E+00
  0.00000000E+00  0.00000000E+00  0.00000000E+00
  0.00000000E+00  0.00000000E+00  0.00000000E+00
