Li6 Mg5 Bi16 S16 O16
1.0
11.178500 0.000000 0.000000
0.000000 9.574600 0.000000
0.000000 0.000000 11.182400
Li Mg Bi S O
6 5 16 16 16
direct
0.375390 0.000170 0.436870 Li
0.625390 0.999840 0.436870 Li
0.624610 0.999840 0.186870 Li
0.374610 0.000170 0.686870 Li
0.625390 0.999840 0.936870 Li
0.624610 0.999840 0.686870 Li
0.124610 0.999840 0.186870 Mg
0.875390 0.000170 0.436870 Mg
0.375390 0.000170 0.936870 Mg
0.124610 0.999840 0.686870 Mg
0.875390 0.000170 0.936870 Mg
0.000130 0.295190 0.062810 Bi
0.250130 0.704810 0.062810 Bi
0.249870 0.295190 0.312820 Bi
0.499870 0.704810 0.312820 Bi
0.500130 0.295190 0.062810 Bi
0.750130 0.704810 0.062810 Bi
0.749870 0.295190 0.312820 Bi
0.999870 0.704810 0.312820 Bi
0.000130 0.295190 0.562810 Bi
0.250130 0.704810 0.562810 Bi
0.249870 0.295190 0.812820 Bi
0.499870 0.704810 0.812820 Bi
0.500130 0.295190 0.562810 Bi
0.750130 0.704810 0.562810 Bi
0.749870 0.295190 0.812820 Bi
0.999870 0.704810 0.812820 Bi
0.250050 0.326770 0.062860 S
0.000050 0.673230 0.062860 S
0.499950 0.326770 0.312860 S
0.249950 0.673230 0.312860 S
0.750050 0.326770 0.062860 S
0.500050 0.673230 0.062860 S
0.999950 0.326770 0.312860 S
0.749950 0.673230 0.312860 S
0.250050 0.326770 0.562860 S
0.000050 0.673230 0.562860 S
0.499950 0.326770 0.812860 S
0.249950 0.673230 0.812860 S
0.750050 0.326770 0.562860 S
0.500050 0.673230 0.562860 S
0.999950 0.326770 0.812860 S
0.749950 0.673230 0.812860 S
0.499870 0.077980 0.062460 O
0.249870 0.922020 0.062460 O
0.250130 0.077980 0.312460 O
0.000130 0.922020 0.312460 O
0.999870 0.077980 0.062460 O
0.749870 0.922020 0.062460 O
0.750130 0.077980 0.312460 O
0.500130 0.922020 0.312460 O
0.499870 0.077980 0.562460 O
0.249870 0.922020 0.562460 O
0.250130 0.077980 0.812460 O
0.000130 0.922020 0.812460 O
0.999870 0.077980 0.562460 O
0.749870 0.922020 0.562460 O
0.750130 0.077980 0.812460 O
0.500130 0.922020 0.812460 O
