Li12 Mg2 Bi16 S16 O16                   
   1.00000000000000     
    11.2117973689436781   -0.0108105561040355    0.0318963704050558
    -0.0091187072514176    9.4860417230665792    0.0044309053894744
     0.0319854509465206    0.0055894823576377   11.1870100770321184
   Li   Mg   Bi   S    O 
    12     2    16    16    16
Direct
  0.3710885908332802  0.0070692769486963  0.4482428860242081
  0.1672400268315676  0.9605623952558174  0.2407281276897099
  0.3850671935562116  0.0004396516071837  0.1864388992731000
  0.6339034136344054  0.0023540044313145  0.4419362924461557
 -0.0023846468101387 -0.0295914170235182  0.4600298513447495
  0.9078713915290427  0.0273663404155605  0.2160528059546824
  0.2319395409456084  0.0203735239357364  0.9527194231160844
  0.1483847860359342  0.0220937980362344  0.6653117723703084
  0.3799559981610961  0.0015624203748693  0.6941095724280881
  0.6028265523888653  0.0043442490577278  0.9258828989470604
  0.6254503910052078  0.0011533412903292  0.6838872349241002
  0.8750725487704007 -0.0002221133340728  0.6843219010736795
  0.6351507260992073 -0.0061621807108066  0.1805117356833584
  0.8606643355957376 -0.0006834090324730  0.9403487222425621
 -0.0059574665415182  0.3082941851321357  0.0599293102532156
  0.2493866181011251  0.6957825641720715  0.0659125149362518
  0.2540818381218420  0.2927206364471180  0.3106287790573752
  0.5021798217166893  0.6906991270729828  0.3085581664401152
  0.4970736829686618  0.3044692142848461  0.0607812215926955
  0.7451165766515782  0.6815625259921986  0.0565464463093036
  0.7503436953082980  0.3049320263526858  0.3097647175491111
  0.0010416844727253  0.6894845607839037  0.3074710454271626
 -0.0000598765233685  0.3044500843136562  0.5649486875731337
  0.2530733090338109  0.7048625373627118  0.5650369926310008
  0.2493269629316761  0.3083459128607164  0.8059890056639634
  0.4963960944104098  0.7044324241535970  0.8064196950838372
  0.5003973829413788  0.3024324887103533  0.5595720221549095
  0.7468556545067533  0.7047376058360902  0.5620440629684683
  0.7464052367962654  0.3099244828528872  0.8098019937476314
 -0.0071265770497670  0.6963524466662667  0.8102057417963611
  0.2442056785753118  0.2910073390793186  0.0558109068324467
 -0.0046350592732023  0.6606061907857972  0.0583022513023141
  0.4996238422625350  0.3532785390371948  0.3085563569406589
  0.2467469303323768  0.6521832653377058  0.3103829752536902
  0.7430802250441118  0.3581649431119442  0.0593498250887271
  0.4964542496889515  0.6515175550268560  0.0601555750022225
  0.9977485304482057  0.3096269078055277  0.3109302794004604
  0.7477004895869880  0.6616593094364669  0.3065845287861651
  0.2467091563990392  0.3470891338133245  0.5569421308940762
 -0.0018596610639027  0.6977422484027361  0.5565704210624145
  0.4974792176916180  0.3394132403019592  0.8093167682334008
  0.2455948040784337  0.6755681776979979  0.8124987617223980
  0.7478716455604363  0.3382970779263871  0.5585843931770652
  0.4987388211846487  0.6497110720574042  0.5592293306467891
  0.9955656008013650  0.3510411520380366  0.8114106260627879
  0.7445041884373866  0.6420816770464906  0.8079705642435288
  0.5191654584179628  0.0868328327886895  0.0741692626762029
  0.2537935756805090  0.9099073566989776  0.0908631915075393
  0.2821668386357216  0.0794501935705730  0.3139411760955682
  0.0132058721133678  0.9075405091456052  0.3029645233700524
  0.9559402758057300  0.0960302123789090  0.0606747406968507
  0.7333380638292614  0.9081930724267915  0.0466845248467758
  0.7433823566944212  0.0856216100704398  0.2945293737077296
  0.5179406005361273  0.9119946666966432  0.2991939209736201
  0.5039468546087124  0.0838648838345966  0.5553586521882347
  0.2702236066661483  0.9196797975221653  0.5722544501402487
  0.2485869185551013  0.0918036460942425  0.7938444560521746
 -0.0397669873815561  0.9092549321840097  0.8169320942228128
  0.0038915892766009  0.0898475985094925  0.5881322548646938
  0.7393026851955169  0.9203771496493555  0.5729378657156657
  0.7462436583965011  0.0877313625389678  0.8215026650321217
  0.5115644867925796  0.9191396427385475  0.7956286265582059
 
  0.00000000E+00  0.00000000E+00  0.00000000E+00
  0.00000000E+00  0.00000000E+00  0.00000000E+00
  0.00000000E+00  0.00000000E+00  0.00000000E+00
  0.00000000E+00  0.00000000E+00  0.00000000E+00
  0.00000000E+00  0.00000000E+00  0.00000000E+00
  0.00000000E+00  0.00000000E+00  0.00000000E+00
  0.00000000E+00  0.00000000E+00  0.00000000E+00
  0.00000000E+00  0.00000000E+00  0.00000000E+00
  0.00000000E+00  0.00000000E+00  0.00000000E+00
  0.00000000E+00  0.00000000E+00  0.00000000E+00
  0.00000000E+00  0.00000000E+00  0.00000000E+00
  0.00000000E+00  0.00000000E+00  0.00000000E+00
  0.00000000E+00  0.00000000E+00  0.00000000E+00
  0.00000000E+00  0.00000000E+00  0.00000000E+00
  0.00000000E+00  0.00000000E+00  0.00000000E+00
  0.00000000E+00  0.00000000E+00  0.00000000E+00
  0.00000000E+00  0.00000000E+00  0.00000000E+00
  0.00000000E+00  0.00000000E+00  0.00000000E+00
  0.00000000E+00  0.00000000E+00  0.00000000E+00
  0.00000000E+00  0.00000000E+00  0.00000000E+00
  0.00000000E+00  0.00000000E+00  0.00000000E+00
  0.00000000E+00  0.00000000E+00  0.00000000E+00
  0.00000000E+00  0.00000000E+00  0.00000000E+00
  0.00000000E+00  0.00000000E+00  0.00000000E+00
  0.00000000E+00  0.00000000E+00  0.00000000E+00
  0.00000000E+00  0.00000000E+00  0.00000000E+00
  0.00000000E+00  0.00000000E+00  0.00000000E+00
  0.00000000E+00  0.00000000E+00  0.00000000E+00
  0.00000000E+00  0.00000000E+00  0.00000000E+00
  0.00000000E+00  0.00000000E+00  0.00000000E+00
  0.00000000E+00  0.00000000E+00  0.00000000E+00
  0.00000000E+00  0.00000000E+00  0.00000000E+00
  0.00000000E+00  0.00000000E+00  0.00000000E+00
  0.00000000E+00  0.00000000E+00  0.00000000E+00
  0.00000000E+00  0.00000000E+00  0.00000000E+00
  0.00000000E+00  0.00000000E+00  0.00000000E+00
  0.00000000E+00  0.00000000E+00  0.00000000E+00
  0.00000000E+00  0.00000000E+00  0.00000000E+00
  0.00000000E+00  0.00000000E+00  0.00000000E+00
  0.00000000E+00  0.00000000E+00  0.00000000E+00
  0.00000000E+00  0.00000000E+00  0.00000000E+00
  0.00000000E+00  0.00000000E+00  0.00000000E+00
  0.00000000E+00  0.00000000E+00  0.00000000E+00
  0.00000000E+00  0.00000000E+00  0.00000000E+00
  0.00000000E+00  0.00000000E+00  0.00000000E+00
  0.00000000E+00  0.00000000E+00  0.00000000E+00
  0.00000000E+00  0.00000000E+00  0.00000000E+00
  0.00000000E+00  0.00000000E+00  0.00000000E+00
  0.00000000E+00  0.00000000E+00  0.00000000E+00
  0.00000000E+00  0.00000000E+00  0.00000000E+00
  0.00000000E+00  0.00000000E+00  0.00000000E+00
  0.00000000E+00  0.00000000E+00  0.00000000E+00
  0.00000000E+00  0.00000000E+00  0.00000000E+00
  0.00000000E+00  0.00000000E+00  0.00000000E+00
  0.00000000E+00  0.00000000E+00  0.00000000E+00
  0.00000000E+00  0.00000000E+00  0.00000000E+00
  0.00000000E+00  0.00000000E+00  0.00000000E+00
  0.00000000E+00  0.00000000E+00  0.00000000E+00
  0.00000000E+00  0.00000000E+00  0.00000000E+00
  0.00000000E+00  0.00000000E+00  0.00000000E+00
  0.00000000E+00  0.00000000E+00  0.00000000E+00
  0.00000000E+00  0.00000000E+00  0.00000000E+00
