Li Mg Bi  S  O 
 1.0000000000000000
    11.1784999999999997    0.0000000000000000    0.0000000000000000
     0.0000000000000000    9.5746000000000002    0.0000000000000000
     0.0000000000000000    0.0000000000000000   11.1823999999999995
 Li  Mg  Bi  S   O  
  12   2  16  16  16
Direct
  0.3364311970445917  0.0303772019598494  0.4663757211238643
  0.1470586300860819  0.9764448103530209  0.2436141270341274
  0.3808044022117874  0.0031503143210819  0.1902060296653833
  0.8921416204500370 -0.0055360200942117  0.1744262222569774
  0.1216833048673381  1.0060810650935870  0.9339553941464853
  0.3694287830298414  0.0007185683303737  0.9424373315573605
  0.1083289113525758  0.9968301988015683  0.6770344104875805
  0.3731854578620232  0.0062996672436159  0.7019772656799455
  0.6229151783061944  1.0039813677775231  0.9268785606792691
  0.8778663465283579  0.0010665978364845  0.9323687566500595
  0.6140611567557560  0.9919213963739103  0.5743601130349619
  0.8642079905129839 -0.0017962332819501  0.6898975128162583
  0.8781987855251639 -0.0015289092722230  0.4302667570253819
  0.6380507314423023  1.0044258333391038  0.1883126664932838
 -0.0004019588098990  0.2944616645208303  0.0578697264342414
  0.2489388935032963  0.7086594794195934  0.0640780243328833
  0.2528520889139043  0.3017406774327099  0.3131985087119605
  0.4997003050329538  0.7009656728948065  0.3062135579656434
  0.5031684279907275  0.3114662271723521  0.0644239785468371
  0.7502262222656997  0.6934164952026922  0.0601055596266848
  0.7517655605930323  0.3083631206558434  0.3124685768419681
  0.9997082678250918  0.6892335790826614  0.3125156917894149
 -0.0038809351455990  0.3003684776710314  0.5641426448318033
  0.2491630758133802  0.7155697844649593  0.5682478264666344
  0.2474973884540539  0.3001096462930030  0.8173398477219546
  0.4956286100426176  0.7080406258011359  0.8155043816892090
  0.4870941939412146  0.3105346423876483  0.5702361693509460
  0.7489859225061148  0.6909117815084348  0.5604067105838524
  0.7492313995879109  0.2939460361213049  0.8136378435219678
  0.9975718919591248  0.7022173809939742  0.8103854406694404
  0.2517711792853682  0.3454756086464638  0.0652371993088973
 -0.0032156267402181  0.6578236405590183  0.0670807830833962
  0.4996546261120954  0.3473500770137292  0.3173971691466466
  0.2490251403525136  0.6817155153683844  0.3133704159015684
  0.7512185631591165  0.3523295929382421  0.0652483532306081
  0.4967248027238878  0.6482929514104174  0.0593733118827267
  1.0017554990750499  0.3354038616431793  0.3131836298320271
  0.7433858540253476  0.6489490642800629  0.3129190477037574
  0.2471207269382798  0.3490129748874979  0.5682320201840233
 -0.0048231074526174  0.6509093713809940  0.5581828691117636
  0.5004435896354085  0.3448360368158621  0.8144013343171306
  0.2443372287202527  0.6554818350421996  0.8124148580845405
  0.7522137162129339  0.3375502533787576  0.5607464718367171
  0.5012548689058419  0.6953485091151460  0.5649549232544437
  0.9979022015300769  0.3494380714284105  0.8130138352493328
  0.7492602928913797  0.6629701676572308  0.8109819278061537
  0.5196580363276925  0.0910864264515152  0.0695946205656793
  0.2592266839974393  0.9246058214031392  0.0680745330230895
  0.2685486525631902  0.0876017934924280  0.3126841878673898
 -0.0141831634453270  0.9087857443420709  0.3069650260141327
  0.9947112075437776  0.0793463321694531  0.0497361292862046
  0.7497118756519980  0.9154842852206666  0.0679234294296646
  0.7683477479523211  0.0850974311804300  0.2974209481916689
  0.5112786327412303  0.9125483206362953  0.2795051423640741
  0.4731984740641182  0.0965759115572856  0.5729001069636571
  0.2487504158070848  0.9281187582890600  0.5885202970760534
  0.2458440053987439  0.0838189693329564  0.8240985144568097
 -0.0014596882912481  0.9199683557452563  0.8084137524775717
  0.9745273219014360  0.0830568343664765  0.5666768354777135
  0.7661344119746510  0.9094318031109241  0.5503306292653759
  0.7583087290174344  0.0797824314738532  0.8225730266920785
  0.4859105375380107  0.9214734309603778  0.8314798325299155
