Li10 Mg3 Bi16 S16 O16                   
   1.00000000000000     
    11.1787399336915563   -0.0558364330981598    0.0039907804699827
    -0.0476731345671938    9.5193389084754632    0.0188375252758132
     0.0040292124549639    0.0207334677267311   11.1859496695401681
   Li   Mg   Bi   S    O 
    10     3    16    16    16
Direct
  0.3710549923398941 -0.0049036370150251  0.4357560439286504
  0.1233756284113446  0.0067750077350492  0.1911742697750276
  0.6096360880038245  0.0163299908341759  0.3935944207232278
  0.9232890883587147  0.0315544358179962  0.4212041013114854
  0.8384747931488645 -0.0209581105568491  0.2050177352721220
  0.1163315962900732  0.0091499510250629  0.9276913577273865
  0.3687140927504663 -0.0041259972374544  0.9188328748989284
  0.2166876181548656  0.0285500727443964  0.6620522840543239
  0.8851661544327701  0.0001973733646541  0.9533467406474505
  0.5920720623231683  0.9738793193165916  0.6586345240407424
  0.3911887285750803 -0.0030108536386304  0.1743719489912660
  0.6329204685319209  0.0020263403719558  0.9462446661463734
  0.8662965961374212  0.0030334523002827  0.7026554600119652
  0.0081142064215530  0.3016614540490858  0.0646112891096190
  0.2551554431568654  0.6895254131474098  0.0631108156585804
  0.2564722051192911  0.3004424551593453  0.3125064166722868
  0.5009056836929899  0.6931405462735593  0.3153715184081666
  0.5051353700014100  0.3109456586186847  0.0604041155756922
  0.7559647927029327  0.6914005761742195  0.0671908728466599
  0.7585832695238791  0.2998239430052160  0.3202873989674144
  0.0024794333678071  0.7113063930195039  0.3129661680409010
 -0.0006533369218112  0.3114255115292818  0.5685661811565114
  0.2549498449490850  0.6968556558713773  0.5606209763503875
  0.2538414517845607  0.3037410070983704  0.8153987580851387
  0.5036448165472489  0.6947529192262795  0.8145015948275185
  0.5044223578879371  0.2920740352178267  0.5574573741314229
  0.7530663831533736  0.6902673072819089  0.5711359508668910
  0.7557002782459222  0.3164671344170079  0.8196832511265396
  0.0015183017977788  0.6995183093740178  0.8151715162781963
  0.2546576131488186  0.3545883463087302  0.0641385710337543
  0.0046714023943577  0.6526794356554727  0.0661635924183902
  0.5043593503715178  0.3476802219446706  0.3142556328895708
  0.2561707217468218  0.6454391217333781  0.3119987469524736
  0.7523070075240028  0.3373689932578583  0.0668735954558242
  0.5057889593770994  0.6499700914714254  0.0645582776107968
  0.0041213713212774  0.3301552277125397  0.3172330998743996
  0.7561987896016714  0.6765196259032816  0.3148715874740735
  0.2499131721736645  0.2819110828365458  0.5659513847514972
  0.0024078753270532  0.6744602416658469  0.5672079203407423
  0.5053366647560573  0.3372437101422246  0.8162946326927161
  0.2559707677963688  0.6704431993110250  0.8145113468917368
  0.7499900789082827  0.3543624830453869  0.5679388166738076
  0.5046754254147712  0.6540781165993156  0.5654245929008501
  0.0047043955674151  0.3562218432415737  0.8169634522083716
  0.7552133966625406  0.6380753057613261  0.8191786249489205
  0.4969814891665829  0.0855481323909258  0.0465089105969414
  0.2699133677487774  0.9103420193485666  0.0634762115586761
  0.2723702005285517  0.0874416650605822  0.2807324868336840
 -0.0085265021243832  0.9241432778790452  0.2902688392104793
  0.0162433066346809  0.0856939613026336  0.0534816449608564
  0.7570351500007044  0.9118913727422658  0.0514506502578701
  0.7639935364736400  0.0848614786040913  0.3325875068936324
  0.4839373911287531  0.9115028151740715  0.3074546418796604
  0.5186159416770008  0.0801446498494818  0.5312687453786039
  0.2688837709394689  0.9064342799021614  0.5490809006661707
  0.2425863565835513  0.0874817885535285  0.8270989873964127
 -0.0206661734033376  0.9172471388912733  0.8238906113897199
  0.9652846260720804  0.0984747658215525  0.5793928976420100
  0.7442567804495670  0.9026501681032006  0.6084764810420574
  0.7609221311795504  0.0907059503131160  0.8340350071377836
  0.5225632259638625  0.9129538249475744  0.8271409764066687
 
  0.00000000E+00  0.00000000E+00  0.00000000E+00
  0.00000000E+00  0.00000000E+00  0.00000000E+00
  0.00000000E+00  0.00000000E+00  0.00000000E+00
  0.00000000E+00  0.00000000E+00  0.00000000E+00
  0.00000000E+00  0.00000000E+00  0.00000000E+00
  0.00000000E+00  0.00000000E+00  0.00000000E+00
  0.00000000E+00  0.00000000E+00  0.00000000E+00
  0.00000000E+00  0.00000000E+00  0.00000000E+00
  0.00000000E+00  0.00000000E+00  0.00000000E+00
  0.00000000E+00  0.00000000E+00  0.00000000E+00
  0.00000000E+00  0.00000000E+00  0.00000000E+00
  0.00000000E+00  0.00000000E+00  0.00000000E+00
  0.00000000E+00  0.00000000E+00  0.00000000E+00
  0.00000000E+00  0.00000000E+00  0.00000000E+00
  0.00000000E+00  0.00000000E+00  0.00000000E+00
  0.00000000E+00  0.00000000E+00  0.00000000E+00
  0.00000000E+00  0.00000000E+00  0.00000000E+00
  0.00000000E+00  0.00000000E+00  0.00000000E+00
  0.00000000E+00  0.00000000E+00  0.00000000E+00
  0.00000000E+00  0.00000000E+00  0.00000000E+00
  0.00000000E+00  0.00000000E+00  0.00000000E+00
  0.00000000E+00  0.00000000E+00  0.00000000E+00
  0.00000000E+00  0.00000000E+00  0.00000000E+00
  0.00000000E+00  0.00000000E+00  0.00000000E+00
  0.00000000E+00  0.00000000E+00  0.00000000E+00
  0.00000000E+00  0.00000000E+00  0.00000000E+00
  0.00000000E+00  0.00000000E+00  0.00000000E+00
  0.00000000E+00  0.00000000E+00  0.00000000E+00
  0.00000000E+00  0.00000000E+00  0.00000000E+00
  0.00000000E+00  0.00000000E+00  0.00000000E+00
  0.00000000E+00  0.00000000E+00  0.00000000E+00
  0.00000000E+00  0.00000000E+00  0.00000000E+00
  0.00000000E+00  0.00000000E+00  0.00000000E+00
  0.00000000E+00  0.00000000E+00  0.00000000E+00
  0.00000000E+00  0.00000000E+00  0.00000000E+00
  0.00000000E+00  0.00000000E+00  0.00000000E+00
  0.00000000E+00  0.00000000E+00  0.00000000E+00
  0.00000000E+00  0.00000000E+00  0.00000000E+00
  0.00000000E+00  0.00000000E+00  0.00000000E+00
  0.00000000E+00  0.00000000E+00  0.00000000E+00
  0.00000000E+00  0.00000000E+00  0.00000000E+00
  0.00000000E+00  0.00000000E+00  0.00000000E+00
  0.00000000E+00  0.00000000E+00  0.00000000E+00
  0.00000000E+00  0.00000000E+00  0.00000000E+00
  0.00000000E+00  0.00000000E+00  0.00000000E+00
  0.00000000E+00  0.00000000E+00  0.00000000E+00
  0.00000000E+00  0.00000000E+00  0.00000000E+00
  0.00000000E+00  0.00000000E+00  0.00000000E+00
  0.00000000E+00  0.00000000E+00  0.00000000E+00
  0.00000000E+00  0.00000000E+00  0.00000000E+00
  0.00000000E+00  0.00000000E+00  0.00000000E+00
  0.00000000E+00  0.00000000E+00  0.00000000E+00
  0.00000000E+00  0.00000000E+00  0.00000000E+00
  0.00000000E+00  0.00000000E+00  0.00000000E+00
  0.00000000E+00  0.00000000E+00  0.00000000E+00
  0.00000000E+00  0.00000000E+00  0.00000000E+00
  0.00000000E+00  0.00000000E+00  0.00000000E+00
  0.00000000E+00  0.00000000E+00  0.00000000E+00
  0.00000000E+00  0.00000000E+00  0.00000000E+00
  0.00000000E+00  0.00000000E+00  0.00000000E+00
  0.00000000E+00  0.00000000E+00  0.00000000E+00
