Li12 Mg2 Bi16 S16 O16                   
   1.00000000000000     
    11.1678418815428255    0.0171792009906928    0.0061427198510210
     0.0145142784536035    9.4502739845099626   -0.0173704836999768
     0.0061659549460578   -0.0215348529729719   11.1590144059514493
   Li   Mg   Bi   S    O 
    12     2    16    16    16
Direct
  0.3614725969710882  0.0022519056657149  0.4309254719377388
  0.1068072602533957  0.0170448413540159  0.2214958185389896
  0.3772299339269597  0.0015828173745982  0.1935832631996532
  0.6199650780353749 -0.0008073449504200  0.4450736399127478
  0.8760592584731466 -0.0024530482636746  0.4329439223811840
  0.6238567808611706  0.0018252303758725  0.1863542813452626
  0.8647364674739577 -0.0002054378859769  0.1872397047679471
  0.1171590497807596  0.9902171488484554  0.9463809691765378
  0.0946612045714184  0.9703118196296044  0.6532602042536368
  0.6434574679952378 -0.0118927288084302  0.9163640691154188
  0.8836717576086768  0.0014935647907684  0.9356745959385531
  0.8345670859380959  0.0157844259106037  0.6703534036573024
  0.3788395770140859  0.0005363076146365  0.9460216512049914
  0.3860115689190401 -0.0019485200338721  0.6867387537279663
  0.0006488439119482  0.2995711729179434  0.0634619505410391
  0.2513517720043068  0.6906194095885370  0.0634665864260818
  0.2515637231276220  0.3016577854602032  0.3123743039652652
  0.5013562157464065  0.7017467928398385  0.3127871145829634
  0.5020909546371941  0.3087148216536592  0.0653423840663529
  0.7530998091427853  0.7003789792046301  0.0634427223746741
  0.7513734812701054  0.3018777561809381  0.3130017365006300
  0.9974851332050438  0.7042261036726699  0.3134606676195720
 -0.0038230308008319  0.2918791798015108  0.5636877970285058
  0.2513246378091595  0.6915222626683566  0.5631367010387188
  0.2558321553158739  0.3149149141215989  0.8122107126354468
  0.5043634870775441  0.6845779795175108  0.8128539393688933
  0.4995053869474091  0.3039216828634489  0.5604358299631408
  0.7519763648427698  0.7027930252453881  0.5592750216413639
  0.7572600265681707  0.3007359006070506  0.8152007747292180
  0.0037775133077361  0.6959012552292446  0.8155420220111035
  0.2549747476848798  0.3473287727713736  0.0626020556335967
  0.0035757528255916  0.6525694458364191  0.0654884649982727
  0.5022862278987535  0.3516334249098459  0.3129730147774498
  0.2529642043305626  0.6717942097698587  0.3132353643267897
  0.7534349330779071  0.3478188379195641  0.0630250502155599
  0.5025684835592418  0.6534834211630530  0.0635163832706680
  0.0035264835063534  0.3334505343590603  0.3119898515858820
  0.7517367130996081  0.6469943153899300  0.3133028780006650
  0.2538292067621633  0.3412860007201247  0.5645083013678532
  0.0042288442306026  0.6709569129557068  0.5663668950147822
  0.5047861459729833  0.3461132138873693  0.8134490319572293
  0.2555429758250408  0.6447152224870965  0.8143534588039384
  0.7528099267661850  0.3432613295750387  0.5641738730813493
  0.5021704233641331  0.6592556532663946  0.5649566445997182
  0.0052407419635609  0.3423281210612269  0.8128724931467693
  0.7526123006057110  0.6728808827950180  0.8151188829322561
  0.4934523243753640  0.0837678297984973  0.0635804504818484
  0.2581956070534132  0.9135540243370607  0.0508785762903726
  0.2594781812612438  0.0849115202705979  0.2993902434840389
 -0.0222752888606880  0.9187316075799024  0.3005976657941473
  0.0007553051726915  0.0791456898127100  0.0644950080684261
  0.7475324656194083  0.9209117120738812  0.0615723597383061
  0.7432572086714883  0.0830115904750007  0.3070721625264554
  0.5004973601695185  0.9218557986878412  0.3099162624263573
  0.4799160450011794  0.0839637322344599  0.5528343549803562
  0.2607813902111234  0.9110335999698945  0.5840091313440655
  0.2831382793646417  0.0913601485108398  0.8170651119560191
  0.0157513916425208  0.9139304854362954  0.8208531451025756
  0.9732099137248928  0.0779041476415816  0.5731848159319037
  0.7512317784061974  0.9177470928982461  0.5407684115668919
  0.7660640177896559  0.0835760361932451  0.8233703540744097
  0.4850443469884182  0.9103446820184110  0.8227292888701767
 
  0.00000000E+00  0.00000000E+00  0.00000000E+00
  0.00000000E+00  0.00000000E+00  0.00000000E+00
  0.00000000E+00  0.00000000E+00  0.00000000E+00
  0.00000000E+00  0.00000000E+00  0.00000000E+00
  0.00000000E+00  0.00000000E+00  0.00000000E+00
  0.00000000E+00  0.00000000E+00  0.00000000E+00
  0.00000000E+00  0.00000000E+00  0.00000000E+00
  0.00000000E+00  0.00000000E+00  0.00000000E+00
  0.00000000E+00  0.00000000E+00  0.00000000E+00
  0.00000000E+00  0.00000000E+00  0.00000000E+00
  0.00000000E+00  0.00000000E+00  0.00000000E+00
  0.00000000E+00  0.00000000E+00  0.00000000E+00
  0.00000000E+00  0.00000000E+00  0.00000000E+00
  0.00000000E+00  0.00000000E+00  0.00000000E+00
  0.00000000E+00  0.00000000E+00  0.00000000E+00
  0.00000000E+00  0.00000000E+00  0.00000000E+00
  0.00000000E+00  0.00000000E+00  0.00000000E+00
  0.00000000E+00  0.00000000E+00  0.00000000E+00
  0.00000000E+00  0.00000000E+00  0.00000000E+00
  0.00000000E+00  0.00000000E+00  0.00000000E+00
  0.00000000E+00  0.00000000E+00  0.00000000E+00
  0.00000000E+00  0.00000000E+00  0.00000000E+00
  0.00000000E+00  0.00000000E+00  0.00000000E+00
  0.00000000E+00  0.00000000E+00  0.00000000E+00
  0.00000000E+00  0.00000000E+00  0.00000000E+00
  0.00000000E+00  0.00000000E+00  0.00000000E+00
  0.00000000E+00  0.00000000E+00  0.00000000E+00
  0.00000000E+00  0.00000000E+00  0.00000000E+00
  0.00000000E+00  0.00000000E+00  0.00000000E+00
  0.00000000E+00  0.00000000E+00  0.00000000E+00
  0.00000000E+00  0.00000000E+00  0.00000000E+00
  0.00000000E+00  0.00000000E+00  0.00000000E+00
  0.00000000E+00  0.00000000E+00  0.00000000E+00
  0.00000000E+00  0.00000000E+00  0.00000000E+00
  0.00000000E+00  0.00000000E+00  0.00000000E+00
  0.00000000E+00  0.00000000E+00  0.00000000E+00
  0.00000000E+00  0.00000000E+00  0.00000000E+00
  0.00000000E+00  0.00000000E+00  0.00000000E+00
  0.00000000E+00  0.00000000E+00  0.00000000E+00
  0.00000000E+00  0.00000000E+00  0.00000000E+00
  0.00000000E+00  0.00000000E+00  0.00000000E+00
  0.00000000E+00  0.00000000E+00  0.00000000E+00
  0.00000000E+00  0.00000000E+00  0.00000000E+00
  0.00000000E+00  0.00000000E+00  0.00000000E+00
  0.00000000E+00  0.00000000E+00  0.00000000E+00
  0.00000000E+00  0.00000000E+00  0.00000000E+00
  0.00000000E+00  0.00000000E+00  0.00000000E+00
  0.00000000E+00  0.00000000E+00  0.00000000E+00
  0.00000000E+00  0.00000000E+00  0.00000000E+00
  0.00000000E+00  0.00000000E+00  0.00000000E+00
  0.00000000E+00  0.00000000E+00  0.00000000E+00
  0.00000000E+00  0.00000000E+00  0.00000000E+00
  0.00000000E+00  0.00000000E+00  0.00000000E+00
  0.00000000E+00  0.00000000E+00  0.00000000E+00
  0.00000000E+00  0.00000000E+00  0.00000000E+00
  0.00000000E+00  0.00000000E+00  0.00000000E+00
  0.00000000E+00  0.00000000E+00  0.00000000E+00
  0.00000000E+00  0.00000000E+00  0.00000000E+00
  0.00000000E+00  0.00000000E+00  0.00000000E+00
  0.00000000E+00  0.00000000E+00  0.00000000E+00
  0.00000000E+00  0.00000000E+00  0.00000000E+00
  0.00000000E+00  0.00000000E+00  0.00000000E+00
