Li Mg Bi  S  O 
 1.0000000000000000
    11.1784999999999997    0.0000000000000000    0.0000000000000000
     0.0000000000000000    9.5746000000000002    0.0000000000000000
     0.0000000000000000    0.0000000000000000   11.1823999999999995
 Li  Mg  Bi  S   O  
   4   6  16  16  16
Direct
  0.3760338216947719 -0.0010432374316118  0.3600429715469124
  0.3759069775210964 -0.0031975830798833  0.6847750119550770
  0.8682002251991914  0.0088288305817744  1.0178501101463788
  0.8731454159044534  0.0066879586616037  0.6905451957827857
  0.1240941013402186  0.9978776132425601  0.1870914820405031
  0.8766121101758797  0.0002699656589989  0.4294942358098937
  0.6244881664260271  1.0044996101790946  0.1859747716061610
  0.3747657854251331  0.0011006318917434  0.9460447708306455
  0.1261306581494170  1.0111902493015532  0.6835796156802340
  0.6248945138518398  0.9934845492952500  0.6902057199622987
  0.0012618534781488  0.3058995634469134  0.0638956092910237
  0.2477089870866113  0.6965895473959512  0.0615742806286240
  0.2482504150093862  0.3038474258911036  0.3115649453505481
  0.5015712866151441  0.6962851264943163  0.3116935733266021
  0.5002838758494771  0.3077242740182957  0.0626053145934362
  0.7482934464878747  0.6956904662137303  0.0647789142766524
  0.7493005083793910  0.3025495604250550  0.3137959151334673
  1.0013989241043839  0.6941018319358258  0.3125345436364740
 -0.0023331719461514  0.3141432856293867  0.5626614595991265
  0.2490557743478410  0.6944142117646889  0.5679207728384641
  0.2492650935546358  0.3096792762301197  0.8134881509362460
  0.4985552214905283  0.6902535556313761  0.8129257748924300
  0.5012718075378251  0.2977245655851072  0.5656822270873313
  0.7489606270417205  0.6916987774541747  0.5605095813718417
  0.7500477812592201  0.3070588138111004  0.8111616335931535
  0.9998669581348020  0.7073944929270993  0.8084167815251710
  0.2521057264142517  0.3510683881460550  0.0645739977691849
  0.0007711012040151  0.6708463993492758  0.0637369569738009
  0.5023665843696223  0.3251147253675107  0.3164021605733854
  0.2521338745913292  0.6744741945413424  0.3118484212568645
  0.7492708072012375  0.3203676705336546  0.0633826098068020
  0.5026358538048425  0.6519047569814742  0.0606496898154847
  0.9945828363620505  0.3443747219307411  0.3146011184044909
  0.7477679391033742  0.6489533903387018  0.3139401665576267
  0.2457433334236306  0.3298398696300286  0.5644495014188524
  0.0015770594549503  0.6474079638616795  0.5580078075008569
  0.4968635114266436  0.3529664329081543  0.8158681379114661
  0.2497031434877481  0.6441810205986450  0.8125300720935471
  0.7523261344793204  0.3567481220761511  0.5659920736650194
  0.5008930793990425  0.6642454940115187  0.5627901219335524
  1.0009597998581223  0.3386824080209950  0.8148169569943630
  0.7499978867346222  0.6658787251439093  0.8112910199415655
  0.4982428210081370  0.0894713607307962  0.0596548248439295
  0.2489079907095653  0.9153356844192246  0.0597892246383592
  0.2410370258513684  0.0912720934826757  0.2953804191965632
 -0.0014698807657530  0.9122517243761890  0.3132780053201925
  1.0097698055839248  0.0933628193719038  0.0776104243537015
  0.7401179951974223  0.9082981838463712  0.0798405383816128
  0.7516236702986960  0.0837983812300848  0.3146431835593611
  0.5093564623664585  0.9089200678333225  0.2927764632978763
  0.5026905298797153  0.0856840905514934  0.5906299152727150
  0.2482472723745931  0.9060507374507912  0.5960159606232742
  0.2634759624733019  0.0873864956335128  0.8058309376621027
  0.0014591379270357  0.9185234262399029  0.7789617553679653
  0.9861044899828878  0.0908782720907326  0.5666567303892014
  0.7624541912581742  0.9137675348827632  0.5704818783034799
  0.7449093907740509  0.0952865339906063  0.7830673207048774
  0.4869438326746435  0.9128571951239894  0.8080172944596506
