Li6 Mg5 Bi16 S16 O16                    
   1.00000000000000     
    11.2339560302055261   -0.0238864594605873    0.0891975450638796
    -0.0191308363583719    9.5569909151591688    0.0225629663335276
     0.0894799692130190    0.0289794129705129   11.1706928402819479
   Li   Mg   Bi   S    O 
     6     5    16    16    16
Direct
  0.0973239108787760  0.0208475377013690  0.2335867937574283
  0.5855471636247496  0.0231810471140974  0.4011097318262264
  0.1110744327697878  0.0086512710965189  0.9387799049606468
  0.0647534696290703 -0.0076291192402562  0.6678893813146781
  0.6304132410624397 -0.0003816127167360  0.9610804090205199
  0.8533649099123279 -0.0264590916342357  0.8929646368817397
  0.3816486903490833 -0.0039757779022459  0.1804250577696720
  0.8656191103652831 -0.0005915968134136  0.4523400211131388
  0.8580855013936591  0.0032803490414856  0.1800694597388047
  0.3799666484817655 -0.0065600149856300  0.9143008728546022
  0.6326113520202681 -0.0083408434266996  0.6862541964582800
  0.0063091215280761  0.3047966710039827  0.0680120753186098
  0.2604468167092931  0.6796366362752370  0.0625459191209778
  0.2558831835620028  0.2978209627363216  0.3134277575513844
  0.4976648238257374  0.6977678254464029  0.3112760177508541
  0.5008813801849665  0.3060445487073810  0.0590376660289418
  0.7582347630296730  0.6900289483527622  0.0607842386258402
  0.7549042879949114  0.3137980526498342  0.3161875288865670
 -0.0008905132925938  0.6931374451820881  0.3155715376361909
  0.0036129701832791  0.3084259728592130  0.5639143831383833
  0.2499013465616076  0.7517459481771825  0.5672222397231176
  0.2497641423479623  0.3067374190089394  0.8130340331036846
  0.5046471364883335  0.6832071909589575  0.8102612654889021
  0.5014234985962756  0.2997885452780168  0.5632582445231779
  0.7528516592449015  0.6840852489654647  0.5639935778084519
  0.7527139856298128  0.2979441296144203  0.8116073252349078
  0.0085301652204220  0.6992001858502416  0.8156300925569806
  0.2613231928330993  0.3613512936702706  0.0656579248698361
  0.0056132393247056  0.6525408999946560  0.0641123834348931
  0.5062278280604690  0.3108437150494223  0.3114272688661057
  0.2535434446794833  0.6708915496236397  0.3081530437099469
  0.7608920029577018  0.3259296358043505  0.0653849848965602
  0.5102573717837613  0.6383012303216518  0.0654875965245548
  0.0049172481234561  0.3562235136403222  0.3131966529304741
  0.7544514907292813  0.6496715969448014  0.3114488840406457
  0.2558419616066155  0.3134560941898503  0.5642152330440533
  0.0087965424944151  0.6647161014980786  0.5620487983667424
  0.5069207378483399  0.3474700225563751  0.8130041769082523
  0.2588338144001399  0.6557227377532804  0.8088223113288548
  0.7562175840352995  0.3567363247191249  0.5649127719740338
  0.5104302361171014  0.6647558197905623  0.5661107214156176
  0.0039216291547040  0.3336811607652497  0.8161023935629885
  0.7582411197297192  0.6521908270832588  0.8143321379605694
  0.4820511662195556  0.0853604807312409  0.0425363695778087
  0.2914954017912420  0.8973456856443216  0.0498884222063147
  0.2500231280570368  0.0909481489995586  0.2662601165355146
 -0.0381047362829847  0.9128851981145931  0.3093355659464365
  0.0023305813808894  0.0855484387220654  0.0909882979495868
  0.7687379820587648  0.9104663177361710  0.0489573216416981
  0.7688546554720143  0.0917361299753541  0.3216962760761716
  0.4960641790918021  0.9110039663613406  0.2924429829004627
  0.5450857057605122  0.0924260572647513  0.5623195567923175
  0.2128308259245526  0.9479082037842069  0.6005409648681929
  0.2447873057280940  0.0984285500523395  0.8570367780651046
  0.0040441312504648  0.9141559325300631  0.8273202666395978
  0.9720632021179986  0.0980500672492964  0.5582792568257309
  0.7461164920327260  0.9049478883120626  0.5617398722821060
  0.7278478876737752  0.0807950541260714  0.8177253236348471
  0.5174454495433958  0.9072134776909515  0.8196809760312994
 
  0.00000000E+00  0.00000000E+00  0.00000000E+00
  0.00000000E+00  0.00000000E+00  0.00000000E+00
  0.00000000E+00  0.00000000E+00  0.00000000E+00
  0.00000000E+00  0.00000000E+00  0.00000000E+00
  0.00000000E+00  0.00000000E+00  0.00000000E+00
  0.00000000E+00  0.00000000E+00  0.00000000E+00
  0.00000000E+00  0.00000000E+00  0.00000000E+00
  0.00000000E+00  0.00000000E+00  0.00000000E+00
  0.00000000E+00  0.00000000E+00  0.00000000E+00
  0.00000000E+00  0.00000000E+00  0.00000000E+00
  0.00000000E+00  0.00000000E+00  0.00000000E+00
  0.00000000E+00  0.00000000E+00  0.00000000E+00
  0.00000000E+00  0.00000000E+00  0.00000000E+00
  0.00000000E+00  0.00000000E+00  0.00000000E+00
  0.00000000E+00  0.00000000E+00  0.00000000E+00
  0.00000000E+00  0.00000000E+00  0.00000000E+00
  0.00000000E+00  0.00000000E+00  0.00000000E+00
  0.00000000E+00  0.00000000E+00  0.00000000E+00
  0.00000000E+00  0.00000000E+00  0.00000000E+00
  0.00000000E+00  0.00000000E+00  0.00000000E+00
  0.00000000E+00  0.00000000E+00  0.00000000E+00
  0.00000000E+00  0.00000000E+00  0.00000000E+00
  0.00000000E+00  0.00000000E+00  0.00000000E+00
  0.00000000E+00  0.00000000E+00  0.00000000E+00
  0.00000000E+00  0.00000000E+00  0.00000000E+00
  0.00000000E+00  0.00000000E+00  0.00000000E+00
  0.00000000E+00  0.00000000E+00  0.00000000E+00
  0.00000000E+00  0.00000000E+00  0.00000000E+00
  0.00000000E+00  0.00000000E+00  0.00000000E+00
  0.00000000E+00  0.00000000E+00  0.00000000E+00
  0.00000000E+00  0.00000000E+00  0.00000000E+00
  0.00000000E+00  0.00000000E+00  0.00000000E+00
  0.00000000E+00  0.00000000E+00  0.00000000E+00
  0.00000000E+00  0.00000000E+00  0.00000000E+00
  0.00000000E+00  0.00000000E+00  0.00000000E+00
  0.00000000E+00  0.00000000E+00  0.00000000E+00
  0.00000000E+00  0.00000000E+00  0.00000000E+00
  0.00000000E+00  0.00000000E+00  0.00000000E+00
  0.00000000E+00  0.00000000E+00  0.00000000E+00
  0.00000000E+00  0.00000000E+00  0.00000000E+00
  0.00000000E+00  0.00000000E+00  0.00000000E+00
  0.00000000E+00  0.00000000E+00  0.00000000E+00
  0.00000000E+00  0.00000000E+00  0.00000000E+00
  0.00000000E+00  0.00000000E+00  0.00000000E+00
  0.00000000E+00  0.00000000E+00  0.00000000E+00
  0.00000000E+00  0.00000000E+00  0.00000000E+00
  0.00000000E+00  0.00000000E+00  0.00000000E+00
  0.00000000E+00  0.00000000E+00  0.00000000E+00
  0.00000000E+00  0.00000000E+00  0.00000000E+00
  0.00000000E+00  0.00000000E+00  0.00000000E+00
  0.00000000E+00  0.00000000E+00  0.00000000E+00
  0.00000000E+00  0.00000000E+00  0.00000000E+00
  0.00000000E+00  0.00000000E+00  0.00000000E+00
  0.00000000E+00  0.00000000E+00  0.00000000E+00
  0.00000000E+00  0.00000000E+00  0.00000000E+00
  0.00000000E+00  0.00000000E+00  0.00000000E+00
  0.00000000E+00  0.00000000E+00  0.00000000E+00
  0.00000000E+00  0.00000000E+00  0.00000000E+00
  0.00000000E+00  0.00000000E+00  0.00000000E+00
