Li12 Mg2 Bi16 S16 O16                   
   1.00000000000000     
    11.1781599804168561    0.0328398418161934   -0.0023140272381483
     0.0282450890111353    9.4696304582306023    0.0638807660656519
    -0.0023421290552416    0.0752605816500510   11.1921692983541607
   Li   Mg   Bi   S    O 
    12     2    16    16    16
Direct
  0.3700575826069432 -0.0008708514000044  0.4437012833845704
  0.2326923691912142 -0.0239500298629649  0.1989664774067654
  0.6276838276506368  0.9962286566212226  0.4505063100708486
  0.9929700188893505 -0.0132409389433939  0.4444069100989464
  0.5895867957501241  0.0229233457051511  0.2114299553207783
  0.1209438197280276  0.9941627116127856  0.9381867366817108
  0.3672632073455865  0.0002656976120849  0.9430301790241482
  0.1351951542640545  0.0026693222183704  0.6830174476489499
  0.3786894334928986  0.0042858466975201  0.6932592985277668
  0.8814562293547000 -0.0018651179141375  0.9276079039416079
  0.6243126172502365  0.0019192571013721  0.6857965862642693
  0.8768282708995759 -0.0021779414903332  0.6823364948920868
  0.8649438280614214 -0.0027782294624523  0.1782214872186237
  0.6311059286839583 -0.0041330681406841  0.9403493638185658
 -0.0009335630534478  0.3017179864938058  0.0613561950319062
  0.2516335769403701  0.6921393085138472  0.0578381825792616
  0.2533372112991608  0.2996240326197133  0.3160481408742021
  0.5017547352932022  0.7043439950460818  0.3175397474969524
  0.4993373602338839  0.3057449867996058  0.0613089284613415
  0.7526832541663128  0.6796789862606594  0.0598552766404319
  0.7499418391679348  0.3058487940480173  0.3074001731172943
 -0.0010973123304546  0.6879403709545758  0.3073899733670575
  0.0021809038025204  0.3028603097853964  0.5654729022500234
  0.2548677066723659  0.7046217924249759  0.5625929799475550
  0.2507647696894308  0.3011012517868852  0.8116653516417415
  0.5020573008829992  0.6947301224665731  0.8125196614381026
  0.5006927192162451  0.3025308371137821  0.5620911528318672
  0.7500740134779617  0.7031351603691743  0.5624086305608211
  0.7506913924182165  0.3068018104276723  0.8083152134303289
  0.0037102617342973  0.6992986720357822  0.8092876243296648
  0.2509396903348784  0.3256928159081097  0.0619608536497165
  0.0016042064442676  0.6466391951950388  0.0576907800301543
  0.5023470742637235  0.3450872492536158  0.3107567944199490
  0.2493205069488338  0.7135834092516183  0.3053449145214592
  0.7506132667711696  0.3558431502450285  0.0591499063662667
  0.5032558288672546  0.6642968593803104  0.0569635916835231
 -0.0009017833466441  0.3133757567397157  0.3113389630807671
  0.7501925781406934  0.6504349867798501  0.3057950747147216
  0.2504780546143898  0.3492427635583336  0.5633539866446944
  0.0011357399518629  0.6994730312127365  0.5565314551821028
  0.5023269171120548  0.3499918675630436  0.8128125556191163
  0.2507279853545936  0.6480995211716815  0.8090311336330196
  0.7513633470340744  0.3355669717632709  0.5618902618823085
  0.5026217497417752  0.6453572787907881  0.5598309868947992
  0.0006958054424321  0.3497602581247455  0.8119015186115149
  0.7498634925120844  0.6484541880168263  0.8075305607466254
  0.5179905925274864  0.0859130466936527  0.0516659928032534
  0.2444799913409954  0.9092507327530523  0.0401249207406024
  0.2679503630261247  0.0888307540313578  0.3259265652391788
 -0.0270398346234904  0.9031949723300442  0.2941718836476153
  0.9747771516870408  0.0838701003663869  0.0520621693171427
  0.7588185026227713  0.9083975009894857  0.0480122257517354
  0.7385220870972036  0.0889947536999172  0.2790530092295480
  0.5160604705647223  0.9176074167137924  0.3394587937904417
  0.5026373565743120  0.0836210875147200  0.5723873590183813
  0.2703597337586727  0.9173410185441490  0.5840520544819967
  0.2538484072745047  0.0814034785834938  0.8129227518946625
  0.0010805547621940  0.9185592552982571  0.8157782959484490
  0.0031537577185739  0.0872393448973353  0.5857616381949766
  0.7385468937012852  0.9188224489229334  0.5778449681985131
  0.7455033171733196  0.0820164286199230  0.8201125952165316
  0.5113009418271069  0.9188812795856744  0.8212148705480683
 
  0.00000000E+00  0.00000000E+00  0.00000000E+00
  0.00000000E+00  0.00000000E+00  0.00000000E+00
  0.00000000E+00  0.00000000E+00  0.00000000E+00
  0.00000000E+00  0.00000000E+00  0.00000000E+00
  0.00000000E+00  0.00000000E+00  0.00000000E+00
  0.00000000E+00  0.00000000E+00  0.00000000E+00
  0.00000000E+00  0.00000000E+00  0.00000000E+00
  0.00000000E+00  0.00000000E+00  0.00000000E+00
  0.00000000E+00  0.00000000E+00  0.00000000E+00
  0.00000000E+00  0.00000000E+00  0.00000000E+00
  0.00000000E+00  0.00000000E+00  0.00000000E+00
  0.00000000E+00  0.00000000E+00  0.00000000E+00
  0.00000000E+00  0.00000000E+00  0.00000000E+00
  0.00000000E+00  0.00000000E+00  0.00000000E+00
  0.00000000E+00  0.00000000E+00  0.00000000E+00
  0.00000000E+00  0.00000000E+00  0.00000000E+00
  0.00000000E+00  0.00000000E+00  0.00000000E+00
  0.00000000E+00  0.00000000E+00  0.00000000E+00
  0.00000000E+00  0.00000000E+00  0.00000000E+00
  0.00000000E+00  0.00000000E+00  0.00000000E+00
  0.00000000E+00  0.00000000E+00  0.00000000E+00
  0.00000000E+00  0.00000000E+00  0.00000000E+00
  0.00000000E+00  0.00000000E+00  0.00000000E+00
  0.00000000E+00  0.00000000E+00  0.00000000E+00
  0.00000000E+00  0.00000000E+00  0.00000000E+00
  0.00000000E+00  0.00000000E+00  0.00000000E+00
  0.00000000E+00  0.00000000E+00  0.00000000E+00
  0.00000000E+00  0.00000000E+00  0.00000000E+00
  0.00000000E+00  0.00000000E+00  0.00000000E+00
  0.00000000E+00  0.00000000E+00  0.00000000E+00
  0.00000000E+00  0.00000000E+00  0.00000000E+00
  0.00000000E+00  0.00000000E+00  0.00000000E+00
  0.00000000E+00  0.00000000E+00  0.00000000E+00
  0.00000000E+00  0.00000000E+00  0.00000000E+00
  0.00000000E+00  0.00000000E+00  0.00000000E+00
  0.00000000E+00  0.00000000E+00  0.00000000E+00
  0.00000000E+00  0.00000000E+00  0.00000000E+00
  0.00000000E+00  0.00000000E+00  0.00000000E+00
  0.00000000E+00  0.00000000E+00  0.00000000E+00
  0.00000000E+00  0.00000000E+00  0.00000000E+00
  0.00000000E+00  0.00000000E+00  0.00000000E+00
  0.00000000E+00  0.00000000E+00  0.00000000E+00
  0.00000000E+00  0.00000000E+00  0.00000000E+00
  0.00000000E+00  0.00000000E+00  0.00000000E+00
  0.00000000E+00  0.00000000E+00  0.00000000E+00
  0.00000000E+00  0.00000000E+00  0.00000000E+00
  0.00000000E+00  0.00000000E+00  0.00000000E+00
  0.00000000E+00  0.00000000E+00  0.00000000E+00
  0.00000000E+00  0.00000000E+00  0.00000000E+00
  0.00000000E+00  0.00000000E+00  0.00000000E+00
  0.00000000E+00  0.00000000E+00  0.00000000E+00
  0.00000000E+00  0.00000000E+00  0.00000000E+00
  0.00000000E+00  0.00000000E+00  0.00000000E+00
  0.00000000E+00  0.00000000E+00  0.00000000E+00
  0.00000000E+00  0.00000000E+00  0.00000000E+00
  0.00000000E+00  0.00000000E+00  0.00000000E+00
  0.00000000E+00  0.00000000E+00  0.00000000E+00
  0.00000000E+00  0.00000000E+00  0.00000000E+00
  0.00000000E+00  0.00000000E+00  0.00000000E+00
  0.00000000E+00  0.00000000E+00  0.00000000E+00
  0.00000000E+00  0.00000000E+00  0.00000000E+00
  0.00000000E+00  0.00000000E+00  0.00000000E+00
