Li Mg Bi  S  O 
 1.0000000000000000
    11.1784999999999997    0.0000000000000000    0.0000000000000000
     0.0000000000000000    9.5746000000000002    0.0000000000000000
     0.0000000000000000    0.0000000000000000   11.1823999999999995
 Li  Mg  Bi  S   O  
   2   7  16  16  16
Direct
  0.3597773478757434 -0.0389934568419883  0.3082452557395058
  0.6856188363731117 -0.1103489346643042  0.7214533862163525
 -0.0079068671067594  0.9944215193150412  0.2467486531174741
  0.8786791924645410 -0.0514091383230310  0.4750728756157876
  0.6159035318836545  0.9683800464785594  0.1333662351568480
  0.4345792552182087 -0.0017486206384234  0.8810211793164264
  0.0685415469746986  0.9278909367597048  0.7183033507635002
  0.3868781056241939 -0.0808615037927124  0.6482697326519506
  0.9075511087770235 -0.1183081140029622  1.0126559462279636
  0.0008489502483392  0.2481286786064676  0.0549014095837182
  0.2221482488920680  0.8920506528434418  0.0804427202766453
  0.2422675523300248  0.2390715117930139  0.2951731242013994
  0.4850423811460911  0.6834583257608858  0.3194320879388825
  0.5254306883350666  0.3183869621846321  0.0479780244638941
  0.7174105759131777  0.6337887887064421  0.0522108970387398
  0.7244963864138204  0.2586949895669298  0.3268534998431969
  0.9638618627987010  0.6001498131068048  0.3064960084601436
 -0.0010252155832173  0.2329571315633691  0.5568130795829814
  0.2108373700232764  0.6440313664220925  0.5372009075582409
  0.2474363534596042  0.2404418592902244  0.8129441276926208
  0.4518227366680329  0.6459432502534964  0.8132223454641834
  0.4695096566276696  0.2360220186390796  0.5499842710282354
  0.7737023696853410  0.6494880236127585  0.5697398695412117
  0.7338100455553047  0.2029417436008036  0.7760408727836524
  0.9865287966933936  0.5868078569245847  0.8311543020968727
  0.2493690953565652  0.2517511335169610  0.0552079075572709
 -0.0557094171046388  0.6370964706201355  0.0824730693834953
  0.4553709894086003  0.3347592541736908  0.3251594820230059
  0.2082609890295359  0.7196053062767865  0.2899628230094110
  0.7532919623307831  0.3386999886740352  0.1039434258360849
  0.4245147696630796  0.5895599422733039  0.0642580603971940
  0.9977233892466481  0.2443572296656662  0.3220941693121337
  0.7161476815246238  0.6167465638569382  0.3301277457532222
  0.2367485690213710  0.2639335966392602  0.5861416433130732
 -0.0080655159924045  0.5450532420643310  0.5745347469640837
  0.4765825998972067  0.3090815052412088  0.8207651803879727
  0.2136001958437418  0.5566550191468063  0.8323704615985477
  0.7028114654167548  0.2965664114053020  0.5583771084038510
  0.4442251303463363  0.6931031340983165  0.5702752761523182
  0.9844744503459963  0.2160366320802641  0.8028016647785862
  0.6761605190289877  0.6000909143544934  0.8110183634048903
  0.5695218245440271  0.1111743855413651  0.0061274316207499
  0.3936600724187276  0.9003178904604635  0.0312049642874563
  0.2080142604947497  0.0498625434394645  0.2557142238780009
 -0.0444879690097445  0.8632516305880641  0.3376283241585638
  1.0470844713257124 -0.0689582436830903  0.0917737815016537
  0.7310429013721224  0.8408929087577692  0.0485565468882401
  0.7542801401546858  0.0634044083199491  0.2777090716096550
  0.5100146953510911  0.8803129185421101  0.2611736772898107
  0.4662570073033137  0.0297927701997163  0.5291420570149958
  0.1892231475510875  0.8348445008514686  0.6187204863092659
  0.2861265924863347  0.0225079902874927  0.7924179955043754
 -0.0098724571030868  0.8079452728815613  0.8425768355855824
  1.0019377376742205  0.0162451216957156  0.5755267890112760
  0.7664742455631274  0.8605424128551241  0.5767250571393077
  0.7718509838227727 -0.0034590621363721  0.8260663791187820
  0.5258286346885924  0.8911008251670934  0.7668397192174038
