Li Mg Bi  S  O 
 1.0000000000000000
    11.1784999999999997    0.0000000000000000    0.0000000000000000
     0.0000000000000000    9.5746000000000002    0.0000000000000000
     0.0000000000000000    0.0000000000000000   11.1823999999999995
 Li  Mg  Bi  S   O  
   2   7  16  16  16
Direct
  0.3564950985813092  0.0006551446027066  0.4545921787022936
  0.6169568018983979  1.0003200906959857  0.4229272667538708
  0.3822680422897084 -0.0033483923921596  0.1873357983776945
  0.8799726584568506 -0.0014768618409318  0.4639922418422643
  0.8688602855544609  0.0014509718697149  0.1909803388329350
  0.3762454716916690 -0.0020920019049503  0.9158073449294895
  0.1231072167087547  1.0019937772210934  0.6916327576782380
  0.8757127212607106 -0.0011628001735567  0.9182591303056661
  0.6278270548420181  0.9951164450106136  0.6928556924848176
 -0.0038095835064444  0.3096716435275316  0.0646175009389294
  0.2589641464019411  0.6843285407405542  0.0646265120647615
  0.2557477458007061  0.2992626856388023  0.3132505000161578
  0.4980426908407575  0.6968812246907445  0.3139024645812445
  0.4958516698747708  0.3100287738741045  0.0641018655534960
  0.7590966958690235  0.6883589908137648  0.0638023042037103
  0.7544588313855953  0.3129066639205627  0.3153854297025034
  1.0013324437675721  0.6922131154738856  0.3160943801953224
  0.0062188074786893  0.3079821135278066  0.5643794027146510
  0.2507950198308947  0.7022379242337878  0.5664978870055246
  0.2512024286358099  0.3048727859948160  0.8120029438509726
  0.5027311970459553  0.6911944700638399  0.8157033213221262
  0.5060038561839755  0.3005698586293684  0.5605992674718578
  0.7479115999945817  0.6884074049762237  0.5617284875148668
  0.7483908145379679  0.3036249470033524  0.8137811501231541
  1.0035230152662731  0.6931549041034724  0.8158806190671810
  0.2504332627219407  0.3504390121498236  0.0634475803449803
  0.0013336624888992  0.6493788805337746  0.0660557487395170
  0.5058855402402024  0.3466046309501919  0.3175683244142013
  0.2537094820604217  0.6596413615783329  0.3140721334786016
  0.7456047653320732  0.3455613269455166  0.0628036837904752
  0.5025082177785941  0.6459418254376300  0.0654777749673250
  1.0001019708700909  0.3425459772212188  0.3130824646612111
  0.7526789919003590  0.6429257269135069  0.3159465687650488
  0.2498482395330884  0.3379800831957402  0.5651142562385283
  0.0001742040813796  0.6594900479957623  0.5657985415566092
  0.4997150201561648  0.3389675170713857  0.8100985094983068
  0.2494696906077040  0.6560198997071434  0.8128772867288220
  0.7519809679024884  0.3530766349070514  0.5649414673810763
  0.5026892609560868  0.6525007943512856  0.5646874562761137
  0.9987911291623277  0.3448097453596370  0.8115007936020224
  0.7513749835345862  0.6634028445552109  0.8129779370256286
  0.4627123267254193  0.0977161499889774  0.0528874175840239
  0.2984279725169895  0.8947114435879104  0.0534650296014409
  0.2856640478554933  0.0902050822818660  0.3113483376413091
 -0.0453425958676215  0.9020923992450267  0.3217693877125255
  0.9579135310420753  0.0978933731094342  0.0587373991160848
  0.7883248802733752  0.9016067471611182  0.0559801756103856
  0.7753463412488001  0.0926579214801002  0.3317013847888676
  0.4864934506371935  0.9141875263034127  0.3187621134498843
  0.5296971315662643  0.0854101026127077  0.5606305849101153
  0.2401907301097101  0.9152537532317500  0.5749636774560770
  0.2472434033349378  0.0857915255569302  0.8107268398965696
  0.0015539191828989  0.9127224988705988  0.8084249134002883
  1.0012748841514350  0.0895392745471919  0.5719763648837343
  0.7374204410232917  0.9114299183192744  0.5538626691171870
  0.7508833613086684  0.0843447843282972  0.8057815313390152
  0.5035965600336446  0.9100244881361264  0.8076374496193383
