Li2 Mg7 Bi16 S16 O16                    
   1.00000000000000     
    11.3143292214123683    0.4780532151669844    0.1511523221312495
     0.4116828118449997    9.5240738562256855    0.0424921737628405
     0.1387322963551276    0.0477859792080454   11.1461857547155532
   Li   Mg   Bi   S    O 
     2     7    16    16    16
Direct
  0.9335760213161913 -0.0527545418334207  0.4739869843124359
  0.8397920811367877  0.0190693120665983  0.6748481942446708
  0.6465538536856956  0.0191290632138365  0.4472951013819730
  0.6311909193990950  0.0228913913131724  0.1750135811761364
  0.8791564050683943 -0.0181794889418561  0.2020627715530027
  0.1148819418419028 -0.0061320677046902  0.7072530190959381
  0.3811529805492244  0.0060860921363707  0.6602915389541626
  0.5766528403704555  0.0700854509371083  0.8772211835505227
  0.8558974771597547 -0.0218216307212214  0.9308335810205512
  0.0162825640404282  0.2528043648598515  0.0694555844220104
  0.2336388438894058  0.8360460768730652  0.1086688746888687
  0.2557780330099717  0.1398047163488885  0.2689572540247318
  0.4797956910678067  0.7538013990278132  0.3041428333505888
  0.5000311607721891  0.3443366921808881  0.0697097155793101
  0.7495054445738523  0.6778433339538261  0.0744783038724326
  0.7563252349505388  0.3226520979144258  0.3079171584739494
 -0.0026467640407720  0.6541120373129542  0.3121017695131981
  0.0008126246197402  0.2898958883274491  0.5614166809544144
  0.2542105883005187  0.6906133567084541  0.5663959378694707
  0.2470428397361515  0.3122912598611082  0.8047474151677668
  0.4967381576373338  0.7164595557973417  0.8187490470023264
  0.4936035239374366  0.3193329740981831  0.5530847809723259
  0.7550770717867489  0.7001621361880742  0.5628085070603838
  0.7530222633182131  0.3215581583908808  0.8160083536992252
  0.0070179943897096  0.6786440448880635  0.8199821116796564
  0.2716834615826603  0.3159149649511793  0.0853891364620621
 -0.0081466210316287  0.6554268995163720  0.0635624432610482
  0.5153668783138965  0.3384506596013313  0.3119501173241613
  0.2310217147793548  0.6574868393358770  0.2911764698114372
  0.7717604122119922  0.3684828542896748  0.0656842330901607
  0.4882828926475990  0.6824481734344953  0.0683944636863904
  0.0130472287236090  0.2858337251729289  0.3158083146751892
  0.7341203656096580  0.6339161397440092  0.3189899978660640
  0.2592326413777106  0.3524517444680825  0.5659256987276086
 -0.0067758835481579  0.6429121492076094  0.5670173419171211
  0.5112199205227747  0.3316176514800578  0.8124071140280524
  0.2426448033692409  0.6558149893341092  0.8091380505781941
  0.7616341491816422  0.3309178470913300  0.5689903969725721
  0.4949163696831245  0.6738187619445528  0.5709036548979431
  0.0063224722612501  0.3373201780339126  0.8169046255650168
  0.7393782112570028  0.6787979854186511  0.8167154058747228
  0.5494166872253231  0.1242291611237553  0.0464378660119818
  0.1410158034837366  0.0447681571370954  0.1519499981953371
  0.3547745209307255 -0.0653785249593097  0.2193481590554599
 -0.0359702106853112  0.8699592774274576  0.3213341522663221
  0.9265304410290854  0.0778565826467667  0.0549167548662821
  0.7588644297000411  0.9069008669605283  0.0797865460286597
  0.7474211764366814  0.0949048683625808  0.2956996261332935
  0.5741198660601073  0.9269114642391296  0.3163321163105406
  0.5045866142671794  0.0962795889869644  0.5530031043742044
  0.2456713711177269  0.9076818825469796  0.5952089829976840
  0.2474235940217401  0.0987525341529189  0.7677634356220917
 -0.0148183304505470  0.9047567075818895  0.8115055176301529
  0.9916595044547630  0.0742873392166752  0.5949416589388293
  0.7698667841544247  0.9184735864275134  0.5458894733006174
  0.7469985542914149  0.0938738715389341  0.8246612059811859
  0.4862503845043976  0.9356094003887636  0.7968236539295946
 
  0.00000000E+00  0.00000000E+00  0.00000000E+00
  0.00000000E+00  0.00000000E+00  0.00000000E+00
  0.00000000E+00  0.00000000E+00  0.00000000E+00
  0.00000000E+00  0.00000000E+00  0.00000000E+00
  0.00000000E+00  0.00000000E+00  0.00000000E+00
  0.00000000E+00  0.00000000E+00  0.00000000E+00
  0.00000000E+00  0.00000000E+00  0.00000000E+00
  0.00000000E+00  0.00000000E+00  0.00000000E+00
  0.00000000E+00  0.00000000E+00  0.00000000E+00
  0.00000000E+00  0.00000000E+00  0.00000000E+00
  0.00000000E+00  0.00000000E+00  0.00000000E+00
  0.00000000E+00  0.00000000E+00  0.00000000E+00
  0.00000000E+00  0.00000000E+00  0.00000000E+00
  0.00000000E+00  0.00000000E+00  0.00000000E+00
  0.00000000E+00  0.00000000E+00  0.00000000E+00
  0.00000000E+00  0.00000000E+00  0.00000000E+00
  0.00000000E+00  0.00000000E+00  0.00000000E+00
  0.00000000E+00  0.00000000E+00  0.00000000E+00
  0.00000000E+00  0.00000000E+00  0.00000000E+00
  0.00000000E+00  0.00000000E+00  0.00000000E+00
  0.00000000E+00  0.00000000E+00  0.00000000E+00
  0.00000000E+00  0.00000000E+00  0.00000000E+00
  0.00000000E+00  0.00000000E+00  0.00000000E+00
  0.00000000E+00  0.00000000E+00  0.00000000E+00
  0.00000000E+00  0.00000000E+00  0.00000000E+00
  0.00000000E+00  0.00000000E+00  0.00000000E+00
  0.00000000E+00  0.00000000E+00  0.00000000E+00
  0.00000000E+00  0.00000000E+00  0.00000000E+00
  0.00000000E+00  0.00000000E+00  0.00000000E+00
  0.00000000E+00  0.00000000E+00  0.00000000E+00
  0.00000000E+00  0.00000000E+00  0.00000000E+00
  0.00000000E+00  0.00000000E+00  0.00000000E+00
  0.00000000E+00  0.00000000E+00  0.00000000E+00
  0.00000000E+00  0.00000000E+00  0.00000000E+00
  0.00000000E+00  0.00000000E+00  0.00000000E+00
  0.00000000E+00  0.00000000E+00  0.00000000E+00
  0.00000000E+00  0.00000000E+00  0.00000000E+00
  0.00000000E+00  0.00000000E+00  0.00000000E+00
  0.00000000E+00  0.00000000E+00  0.00000000E+00
  0.00000000E+00  0.00000000E+00  0.00000000E+00
  0.00000000E+00  0.00000000E+00  0.00000000E+00
  0.00000000E+00  0.00000000E+00  0.00000000E+00
  0.00000000E+00  0.00000000E+00  0.00000000E+00
  0.00000000E+00  0.00000000E+00  0.00000000E+00
  0.00000000E+00  0.00000000E+00  0.00000000E+00
  0.00000000E+00  0.00000000E+00  0.00000000E+00
  0.00000000E+00  0.00000000E+00  0.00000000E+00
  0.00000000E+00  0.00000000E+00  0.00000000E+00
  0.00000000E+00  0.00000000E+00  0.00000000E+00
  0.00000000E+00  0.00000000E+00  0.00000000E+00
  0.00000000E+00  0.00000000E+00  0.00000000E+00
  0.00000000E+00  0.00000000E+00  0.00000000E+00
  0.00000000E+00  0.00000000E+00  0.00000000E+00
  0.00000000E+00  0.00000000E+00  0.00000000E+00
  0.00000000E+00  0.00000000E+00  0.00000000E+00
  0.00000000E+00  0.00000000E+00  0.00000000E+00
  0.00000000E+00  0.00000000E+00  0.00000000E+00
