Li10 Mg3 Bi16 S16 O16                   
   1.00000000000000     
    11.1582115519955458    0.0184121744659409   -0.0846508186294603
     0.0159691907808886    9.5157299999596532   -0.0159702721047602
    -0.0846301294163660   -0.0184115827959524   11.1577463963212082
   Li   Mg   Bi   S    O 
    10     3    16    16    16
Direct
  0.3526726510240105  0.0097407313505315  0.4488171510790827
  0.0835979945502533  0.0333768731203250  0.2393388710413266
  0.3593977595691255  0.0026207654924177  0.1798478157531584
  0.6130144920939540 -0.0061216538587373  0.4494224637793226
  0.4034513347285500 -0.0059034805134778  0.9437120364134135
  0.1175920259933294  0.9928877182951046  0.6574446752959900
  0.3649552401897452 -0.0011985448124037  0.6975196296981822
  0.8225983081076238  0.0334234446656069  0.9787607979597991
  0.6136694275063074  0.0097882258434409  0.7097356099337673
  0.8822886644005766  0.0025681150510202  0.7028890956561039
  0.8684303894719648  0.0041469289205305  0.4354592578505825
  0.6268581429008090  0.0041602477988685  0.1940043673961856
  0.1345552172563762  0.0000796944024702  0.9279991251371428
  0.0063570520580459  0.3057265602299747  0.0562328255805505
  0.2558418625324907  0.6947433591070125  0.0554183220367386
  0.2533610032861963  0.3003148343769332  0.3093514089371273
  0.5031852225679384  0.6906238912862699  0.3096888235698053
  0.5015922464532055  0.3015223659947658  0.0628614590618541
  0.7520334583768041  0.7019410485633761  0.0610811892806022
  0.7498673916496389  0.3100691076744498  0.3126502061516727
  0.0015750490403508  0.7019521175230664  0.3105392493809742
 -0.0002886530032149  0.3014906588315878  0.5609668945341740
  0.2548307511502677  0.7033187965699768  0.5590620625862159
  0.2543637708658696  0.3110386099553398  0.8086294866747974
  0.5036109785243538  0.7035179518909980  0.8079071994408751
  0.5006916549562680  0.2978891372095932  0.5618731578464951
  0.7529323469243042  0.6906420425938224  0.5594351732514441
  0.7533418267837798  0.3004269584053536  0.8091841248749061
  0.0072831043888460  0.6948080127239434  0.8067328192007834
  0.2535997676892542  0.3522965741517480  0.0586658490688052
  0.0064438197472868  0.6747920419388054  0.0561231941202026
  0.5026317828816459  0.3517223020899058  0.3088634934550543
  0.2548472669180289  0.6765762586368438  0.3068981310143991
  0.7535343942732166  0.2899746100030481  0.0617236385236915
  0.5064209758161087  0.6479455471299769  0.0592047365331626
  0.0008011063498728  0.2900094594290795  0.3090317968805803
  0.7560468845014452  0.6398436294603866  0.3065697119659141
  0.2536629405185947  0.3327165667808179  0.5579630993366842
  0.0034930455989363  0.6479877938652696  0.5561987699051895
  0.5047617777948761  0.3333476214911540  0.8088664987950092
  0.2554313672859042  0.6423494475122745  0.8071966168722087
  0.7537226252360829  0.3517195011131393  0.5599232527224191
  0.5033897644604169  0.6512501888032268  0.5592788710547274
  0.0040734331769623  0.3518714200360066  0.8089398500602327
  0.7557904904175624  0.6767024775223911  0.8077332887225465
  0.4918882036600591  0.0846297644195932  0.0881540298139444
  0.2645981074410850  0.9133446870621884  0.0342764286874443
  0.2598878298483177  0.0849730659579924  0.3011541762098521
 -0.0185695354402937  0.9139386984848585  0.3253659773636227
  0.0210448763902926  0.0897835335797561  0.0417611112832822
  0.7370719048204997  0.9139221896744947  0.0811383538154775
  0.7293662033915563  0.0885882063753899  0.3330807213863965
  0.5149190007583270  0.9105002080023679  0.3087944018876622
  0.4988738204070196  0.0796318786520056  0.5637052005090931
  0.2592903174702361  0.9178009944397909  0.5758137689349233
  0.2493008189047257  0.0909339623925089  0.8149729933322306
  0.0285227254954590  0.9134596295439051  0.7976619599408939
  0.9742291855714471  0.0845459495820708  0.5704449734814087
  0.7538260635514201  0.9105314338679663  0.5476649478400967
  0.7613107848064211  0.0850448213354160  0.8026441193387679
  0.4867375359094611  0.9179010179734357  0.8030907377410340
 
  0.00000000E+00  0.00000000E+00  0.00000000E+00
  0.00000000E+00  0.00000000E+00  0.00000000E+00
  0.00000000E+00  0.00000000E+00  0.00000000E+00
  0.00000000E+00  0.00000000E+00  0.00000000E+00
  0.00000000E+00  0.00000000E+00  0.00000000E+00
  0.00000000E+00  0.00000000E+00  0.00000000E+00
  0.00000000E+00  0.00000000E+00  0.00000000E+00
  0.00000000E+00  0.00000000E+00  0.00000000E+00
  0.00000000E+00  0.00000000E+00  0.00000000E+00
  0.00000000E+00  0.00000000E+00  0.00000000E+00
  0.00000000E+00  0.00000000E+00  0.00000000E+00
  0.00000000E+00  0.00000000E+00  0.00000000E+00
  0.00000000E+00  0.00000000E+00  0.00000000E+00
  0.00000000E+00  0.00000000E+00  0.00000000E+00
  0.00000000E+00  0.00000000E+00  0.00000000E+00
  0.00000000E+00  0.00000000E+00  0.00000000E+00
  0.00000000E+00  0.00000000E+00  0.00000000E+00
  0.00000000E+00  0.00000000E+00  0.00000000E+00
  0.00000000E+00  0.00000000E+00  0.00000000E+00
  0.00000000E+00  0.00000000E+00  0.00000000E+00
  0.00000000E+00  0.00000000E+00  0.00000000E+00
  0.00000000E+00  0.00000000E+00  0.00000000E+00
  0.00000000E+00  0.00000000E+00  0.00000000E+00
  0.00000000E+00  0.00000000E+00  0.00000000E+00
  0.00000000E+00  0.00000000E+00  0.00000000E+00
  0.00000000E+00  0.00000000E+00  0.00000000E+00
  0.00000000E+00  0.00000000E+00  0.00000000E+00
  0.00000000E+00  0.00000000E+00  0.00000000E+00
  0.00000000E+00  0.00000000E+00  0.00000000E+00
  0.00000000E+00  0.00000000E+00  0.00000000E+00
  0.00000000E+00  0.00000000E+00  0.00000000E+00
  0.00000000E+00  0.00000000E+00  0.00000000E+00
  0.00000000E+00  0.00000000E+00  0.00000000E+00
  0.00000000E+00  0.00000000E+00  0.00000000E+00
  0.00000000E+00  0.00000000E+00  0.00000000E+00
  0.00000000E+00  0.00000000E+00  0.00000000E+00
  0.00000000E+00  0.00000000E+00  0.00000000E+00
  0.00000000E+00  0.00000000E+00  0.00000000E+00
  0.00000000E+00  0.00000000E+00  0.00000000E+00
  0.00000000E+00  0.00000000E+00  0.00000000E+00
  0.00000000E+00  0.00000000E+00  0.00000000E+00
  0.00000000E+00  0.00000000E+00  0.00000000E+00
  0.00000000E+00  0.00000000E+00  0.00000000E+00
  0.00000000E+00  0.00000000E+00  0.00000000E+00
  0.00000000E+00  0.00000000E+00  0.00000000E+00
  0.00000000E+00  0.00000000E+00  0.00000000E+00
  0.00000000E+00  0.00000000E+00  0.00000000E+00
  0.00000000E+00  0.00000000E+00  0.00000000E+00
  0.00000000E+00  0.00000000E+00  0.00000000E+00
  0.00000000E+00  0.00000000E+00  0.00000000E+00
  0.00000000E+00  0.00000000E+00  0.00000000E+00
  0.00000000E+00  0.00000000E+00  0.00000000E+00
  0.00000000E+00  0.00000000E+00  0.00000000E+00
  0.00000000E+00  0.00000000E+00  0.00000000E+00
  0.00000000E+00  0.00000000E+00  0.00000000E+00
  0.00000000E+00  0.00000000E+00  0.00000000E+00
  0.00000000E+00  0.00000000E+00  0.00000000E+00
  0.00000000E+00  0.00000000E+00  0.00000000E+00
  0.00000000E+00  0.00000000E+00  0.00000000E+00
  0.00000000E+00  0.00000000E+00  0.00000000E+00
  0.00000000E+00  0.00000000E+00  0.00000000E+00
