Li Mg Bi  S  O 
 1.0000000000000000
    11.1784999999999997    0.0000000000000000    0.0000000000000000
     0.0000000000000000    9.5746000000000002    0.0000000000000000
     0.0000000000000000    0.0000000000000000   11.1823999999999995
 Li  Mg  Bi  S   O  
   4   6  16  16  16
Direct
  0.1507831092299779 -0.0268205061378697  0.4445834358259272
  0.6024311812988223  0.9748492130021366  0.4516751299059864
  0.3832897970924705 -0.0224135440970456  0.6884790807768232
  0.6765443056837422  1.0023000640083566  0.6787653792802043
  0.1026937046660075  0.9702855739550090  0.1728441882898975
  0.8769105996492751 -0.0146715507846746  0.4196728503824180
  0.6419998410575514  0.9942411955545164  0.1710411862770053
  0.3595286687547394 -0.0152309860398737  0.9560085919502564
  0.1156367743767889  0.9821057721783365  0.7076028100505412
  0.8755629057198081 -0.0203138056242713  0.9369407179120912
  0.0003972437590475  0.2865677780071891  0.0609559085105965
  0.2445488154773514  0.6696074087357041  0.0669650532056171
  0.2452607687111338  0.2735646475574084  0.3100201867464960
  0.5046020839558520  0.6946951172113228  0.3101383009386865
  0.4989986729328723  0.2903962025152643  0.0661300396957377
  0.7399632249192021  0.6762194404737571  0.0619388591994516
  0.7472471854248736  0.3014592728403033  0.3120293027562354
  0.9938270301634353  0.6646437673899078  0.3119267894858736
  0.0014377467647852  0.2839259673889030  0.5588600580762382
  0.2560394227379330  0.6776516218871083  0.5605878346604888
  0.2535171920982008  0.2954780643482710  0.8099274197963360
  0.4852494090024140  0.6742692298686359  0.8145006288570839
  0.5059666724765850  0.2718040896037033  0.5660608284889472
  0.7449605781363101  0.6877360190789557  0.5547614336313670
  0.7543478653234703  0.2884798986084747  0.8136096654234636
  0.9878956307247942  0.6722400468568061  0.8099369864362486
  0.2518050223959568  0.3213191852985398  0.0651416941902699
 -0.0198148645258277  0.6360094059295246  0.0668561677647647
  0.5004578950110590  0.3169359995587008  0.3098636524749428
  0.2441117995002148  0.7032245671310797  0.3233713414357830
  0.7586602459199128  0.3244362150240350  0.0604807748940446
  0.4880010863131060  0.6403627712336676  0.0725759712174929
  1.0011467668488703  0.3410449104289364  0.3149288475984161
  0.7403672316419412  0.6221699033019209  0.3162027774283280
  0.2506300977555839  0.3254004517043213  0.5609786470842619
 -0.0140665686120700  0.6416604798848470  0.5667118860294903
  0.4987695569089964  0.3281308016077978  0.8155094716459769
  0.2478121936093867  0.6172096448698826  0.8195026026143164
  0.7442965098909660  0.3293363645772154  0.5608647439249185
  0.4986530441968176  0.6624260885135961  0.5644826975704228
  0.9976805328313461  0.3267750299048675  0.8040711989041054
  0.7379257365830151  0.6568290090846173  0.8190772716820018
  0.5004199108340183  0.0724740861343776  0.0622759853011851
  0.2326180784359481  0.8880970539034450  0.0590800057769711
  0.1961545939078229  0.0696347815031869  0.2988295290267845
 -0.0125968908906577  0.8844927764158597  0.3058128910737773
  0.9938508163008412  0.0677848977868463  0.0553103570120960
  0.7557190154808526  0.8952769390747456  0.0592136880119863
  0.7510765618195153  0.0810140615430112  0.3122187348094953
  0.5504679274067376  0.8997901301314019  0.2997687960817470
  0.5225114913413291  0.0603465925246271  0.5902412579939056
  0.2319769350995325  0.8926073580471634  0.5944616467558878
  0.2523935242819111  0.0735406343152171  0.8088856606205620
 -0.0043130011900708  0.8911836059339810  0.8160520464790704
  1.0128176636933877  0.0636481997306074  0.5463880420055127
  0.7523382541138602  0.9042353007649473  0.5332024216943062
  0.7669316795837281  0.0743244126419320  0.8169158211769113
  0.4465946223219865  0.8828025891078423  0.8293829256364524
