Li Mg Bi  S  O 
 1.0000000000000000
    11.1784999999999997    0.0000000000000000    0.0000000000000000
     0.0000000000000000    9.5746000000000002    0.0000000000000000
     0.0000000000000000    0.0000000000000000   11.1823999999999995
 Li  Mg  Bi  S   O  
  12   2  16  16  16
Direct
  0.3554418528184667 -0.0221744894047019  0.3503205801837495
  0.6232251199602421  0.9958724346378872  0.4435022910141991
  0.8911016731036189  0.0086953324857694  0.4195544700990624
  0.6122381725025153  1.0008346127484939  0.1900136958241630
  0.8605151688197509  0.0005159093104169  0.1801399855501705
  0.1260094661304197  0.9984846206857899  0.9182584997253136
  0.3565942223904804  0.0158897948277500  0.9786920944933875
  0.0992710387487067  0.9732960758228009  0.6456581589207102
  0.6211162083333656  1.0009504655899637  0.9346988383233480
  0.8756611668265192  0.0021640014202671  0.9353485791500873
  0.6286760218522525  1.0008081591658646  0.6898006819115243
  0.8646639384253425  0.0020490817994064  0.6839901513203438
  0.1177045308698931  0.9970105349575977  0.1830213511320387
  0.3772892553723544  0.0027500859897119  0.6981393391693578
 -0.0022602429942314  0.3079589338099753  0.0633229281836315
  0.2451064249993321  0.6963085048170777  0.0615448938699013
  0.2464160022422290  0.3012496342128735  0.3122446880048615
  0.5010508399006857  0.6970011398464234  0.3155681021040983
  0.5029613299821363  0.2963726441975036  0.0652165705329295
  0.7461361797116267  0.7059926554946501  0.0606297783980242
  0.7483095759219202  0.2980952779962093  0.3153175540433359
  0.9935526740773527  0.6994877322378484  0.3090626841707978
 -0.0044188672020546  0.2917695437579071  0.5638481656852028
  0.2463557414919591  0.6891311100852631  0.5691472614794332
  0.2531349504779044  0.3084723285111980  0.8186507369787963
  0.4991182586362259  0.6964355985832763  0.8117838494517928
  0.4988551601496681  0.3046320948560547  0.5674794642628628
  0.7473332354857578  0.7043911376642631  0.5618986245713574
  0.7507094819529387  0.2978999378376440  0.8143704229678407
  0.9972175582398252  0.7036593461720139  0.8110191706620670
  0.2482706549053627  0.3526425555074894  0.0687079977665315
 -0.0052315876975645  0.6475104969490897  0.0590583806068584
  0.4985223231932958  0.3283576720327561  0.3151506295410112
  0.2418382697119592  0.7161672659938085  0.3109754997614145
  0.7512908738018962  0.3458574095132186  0.0660194319619329
  0.4964697729880928  0.6673148129125511  0.0660497353094281
  1.0000097469773885  0.3483240301651810  0.3170085066717240
  0.7488375860759375  0.6508447988402734  0.3136393015640307
  0.2514460792729717  0.3244159998906473  0.5670784872205609
 -0.0000572688725317  0.6716993076537021  0.5632955608770465
  0.5032728347087169  0.3548979425003802  0.8170282654025876
  0.2496405631889313  0.6450801834069406  0.8170712177709638
  0.7489086968350869  0.3503034914592817  0.5651077860160487
  0.4875361563856824  0.6473399332862297  0.5565286428611115
  1.0021593239418267  0.3400660265134295  0.8142069270730166
  0.7473147015919667  0.6557576809411197  0.8100434348535156
  0.5090743184318812  0.0825106871499947  0.0522654629249012
  0.2199341075175454  0.9131077033854129  0.0501631373960448
  0.2340600216639271  0.0897504339149185  0.2895286205340872
 -0.0176777668751743  0.9154376523009955  0.2817962544032571
  1.0004824326657917  0.0864691891033886  0.0630869186858016
  0.7506707358498550  0.9232094829707483  0.0564064604677665
  0.7516848288775070  0.0809148964798800  0.3111087043954494
  0.5163187288748557  0.9117496313191571  0.3234158775685760
  0.5029910622072606  0.0880045099399853  0.5883209265072924
  0.2556780063427090  0.9006867141237035  0.6038254402635186
  0.2707159669727860  0.0896496095558119  0.8275249266211382
 -0.0022662678418691  0.9218427751463387  0.8084005132188330
  0.9769495121051729  0.0784774429298449  0.5647950588454153
  0.7398286422311631  0.9205948930543374  0.5668929517689526
  0.7498580757482617  0.0800821415963622  0.8127264330978102
  0.5041398498433001  0.9158674057576984  0.8042118971967552
