Li8 Mg4 Bi16 S16 O16                    
   1.00000000000000     
    11.1844698702384200   -0.0001876082271405    0.0000063751333416
    -0.0002454979984205    9.5409055611007432    0.0059597388393051
     0.0000077697048499    0.0070924399505382   11.1227848900248940
   Li   Mg   Bi   S    O 
     8     4    16    16    16
Direct
  0.1199111634439857 -0.0005561167427127  0.1746718380297693
  0.3615829313881450 -0.0074981917073688  0.2092064038113408
  0.6206320783292013  0.0000105410687334  0.4375921000785059
  0.1176512440534097  0.0000264033702197  0.4375713147384938
  0.8783894413537504  0.0049966574401963  0.2083403494281241
  0.1198957174381902  0.0005693822306367  0.7004813920822525
  0.3615654468900831  0.0075110725089333  0.6658487861921204
  0.8783986656487099 -0.0049454487327212  0.6667369892378598
  0.6204618417534646 -0.0005962083939916  0.1633146200097446
  0.3781114468282696  0.0000061064898289  0.9375395701336660
  0.8633987466828157 -0.0000296335902255  0.9375290756001304
  0.6204533212634450  0.0005889314693902  0.7117873510746852
 -0.0068434577640268  0.3031452435803497  0.0641994052207704
  0.2490966200518575  0.6958440798079515  0.0642538365479847
  0.2422064195517643  0.2947405739451862  0.3114516807834522
  0.4975817481582576  0.6956670460817299  0.3101587320934973
  0.4924532440725352  0.3131121695091063  0.0648388093366674
  0.7498172803824035  0.6864509298892034  0.0652295571771171
  0.7441978538043443  0.3026834716145840  0.3100392772343254
 -0.0004731910233177  0.7034418195264817  0.3115845777485142
 -0.0004307124048330  0.2966363593472083  0.5634723138139028
  0.2421920709322207  0.7052962787639213  0.5636019671017097
  0.2490932745533752  0.3041644389996528  0.8108058491541339
  0.4924337754831240  0.6868806978002363  0.8102953334250573
  0.4976335281976580  0.3043400176473037  0.5649697195170090
  0.7441736912609779  0.6973367657476691  0.5650806923931221
  0.7498314209002176  0.3135325297891154  0.8098993234130255
 -0.0068553318089044  0.6968305606489974  0.8108505447574369
  0.2482117981357217  0.3455475974486414  0.0617838679531119
 -0.0052532031804041  0.6544830755878353  0.0613201894186702
  0.4971500594662752  0.3439850676280142  0.3116445289268430
  0.2474531451646749  0.6563046716060648  0.3113221299589887
  0.7464829367628354  0.3522898508664021  0.0626612990474921
  0.4966165943360932  0.6473797686673876  0.0623227193660565
 -0.0047048334393207  0.3434789408264604  0.3115635565205652
  0.7455857023973741  0.6549601818980334  0.3114280350438907
  0.2474743706010375  0.3437428296532844  0.5637518787184126
 -0.0046875225943542  0.6565498959332851  0.5634693975236701
  0.4966007241483194  0.3525915892432981  0.8127726039901368
  0.2482066228181951  0.6544661378020796  0.8132845202335786
  0.7455995036220623  0.3450579399780844  0.5636790889875024
  0.4971509672368011  0.6559927419999027  0.5634472835848980
 -0.0052714425720231  0.3455676756466082  0.8137368735885104
  0.7464787262925614  0.6476978965053711  0.8124359935073671
  0.4881548702575332  0.0889112142810887  0.0647750244305432
  0.2733236175298721  0.9124636215179709  0.0661246059587108
  0.2291999185039613  0.0822036727849426  0.2967556602519099
  0.0107178487921554  0.9163383940550354  0.2971342829370287
  0.9684902398944351  0.0865976000055260  0.0662198831847653
  0.7536707806437404  0.9108220939882876  0.0653110396813054
  0.7269447989009248  0.0866047584986347  0.2880562713186521
  0.5139047393008903  0.9118685279555714  0.2879828150981580
  0.5139206924504538  0.0881224339136846  0.5871031304302777
  0.2291833878963399  0.9178647898943427  0.5783267480182337
  0.2733093326543104  0.0875422839047001  0.8089352315732651
 -0.0315112616815460  0.9133911325503752  0.8088267304807529
  0.0107358825933582  0.0837131707240099  0.5779822558967149
  0.7269184951416414  0.9134225372518450  0.5870164265605184
  0.7536815162266204  0.0891617018795033  0.8097667588697115
  0.4881407122783218  0.9110797273940919  0.8103077588053745
 
  0.00000000E+00  0.00000000E+00  0.00000000E+00
  0.00000000E+00  0.00000000E+00  0.00000000E+00
  0.00000000E+00  0.00000000E+00  0.00000000E+00
  0.00000000E+00  0.00000000E+00  0.00000000E+00
  0.00000000E+00  0.00000000E+00  0.00000000E+00
  0.00000000E+00  0.00000000E+00  0.00000000E+00
  0.00000000E+00  0.00000000E+00  0.00000000E+00
  0.00000000E+00  0.00000000E+00  0.00000000E+00
  0.00000000E+00  0.00000000E+00  0.00000000E+00
  0.00000000E+00  0.00000000E+00  0.00000000E+00
  0.00000000E+00  0.00000000E+00  0.00000000E+00
  0.00000000E+00  0.00000000E+00  0.00000000E+00
  0.00000000E+00  0.00000000E+00  0.00000000E+00
  0.00000000E+00  0.00000000E+00  0.00000000E+00
  0.00000000E+00  0.00000000E+00  0.00000000E+00
  0.00000000E+00  0.00000000E+00  0.00000000E+00
  0.00000000E+00  0.00000000E+00  0.00000000E+00
  0.00000000E+00  0.00000000E+00  0.00000000E+00
  0.00000000E+00  0.00000000E+00  0.00000000E+00
  0.00000000E+00  0.00000000E+00  0.00000000E+00
  0.00000000E+00  0.00000000E+00  0.00000000E+00
  0.00000000E+00  0.00000000E+00  0.00000000E+00
  0.00000000E+00  0.00000000E+00  0.00000000E+00
  0.00000000E+00  0.00000000E+00  0.00000000E+00
  0.00000000E+00  0.00000000E+00  0.00000000E+00
  0.00000000E+00  0.00000000E+00  0.00000000E+00
  0.00000000E+00  0.00000000E+00  0.00000000E+00
  0.00000000E+00  0.00000000E+00  0.00000000E+00
  0.00000000E+00  0.00000000E+00  0.00000000E+00
  0.00000000E+00  0.00000000E+00  0.00000000E+00
  0.00000000E+00  0.00000000E+00  0.00000000E+00
  0.00000000E+00  0.00000000E+00  0.00000000E+00
  0.00000000E+00  0.00000000E+00  0.00000000E+00
  0.00000000E+00  0.00000000E+00  0.00000000E+00
  0.00000000E+00  0.00000000E+00  0.00000000E+00
  0.00000000E+00  0.00000000E+00  0.00000000E+00
  0.00000000E+00  0.00000000E+00  0.00000000E+00
  0.00000000E+00  0.00000000E+00  0.00000000E+00
  0.00000000E+00  0.00000000E+00  0.00000000E+00
  0.00000000E+00  0.00000000E+00  0.00000000E+00
  0.00000000E+00  0.00000000E+00  0.00000000E+00
  0.00000000E+00  0.00000000E+00  0.00000000E+00
  0.00000000E+00  0.00000000E+00  0.00000000E+00
  0.00000000E+00  0.00000000E+00  0.00000000E+00
  0.00000000E+00  0.00000000E+00  0.00000000E+00
  0.00000000E+00  0.00000000E+00  0.00000000E+00
  0.00000000E+00  0.00000000E+00  0.00000000E+00
  0.00000000E+00  0.00000000E+00  0.00000000E+00
  0.00000000E+00  0.00000000E+00  0.00000000E+00
  0.00000000E+00  0.00000000E+00  0.00000000E+00
  0.00000000E+00  0.00000000E+00  0.00000000E+00
  0.00000000E+00  0.00000000E+00  0.00000000E+00
  0.00000000E+00  0.00000000E+00  0.00000000E+00
  0.00000000E+00  0.00000000E+00  0.00000000E+00
  0.00000000E+00  0.00000000E+00  0.00000000E+00
  0.00000000E+00  0.00000000E+00  0.00000000E+00
  0.00000000E+00  0.00000000E+00  0.00000000E+00
  0.00000000E+00  0.00000000E+00  0.00000000E+00
  0.00000000E+00  0.00000000E+00  0.00000000E+00
  0.00000000E+00  0.00000000E+00  0.00000000E+00
