Li Mg Bi  S  O 
 1.0000000000000000
    11.1784999999999997    0.0000000000000000    0.0000000000000000
     0.0000000000000000    9.5746000000000002    0.0000000000000000
     0.0000000000000000    0.0000000000000000   11.1823999999999995
 Li  Mg  Bi  S   O  
  12   2  16  16  16
Direct
  0.3629391079807362  0.0028593514503995  0.4327475271434051
  0.3850885449484436  0.0037722547357599  0.1896677881310133
  0.6261547318530173  1.0004145693760274  0.4503784302465537
  0.8889941303780057 -0.0022307665752854  0.4388659781042474
  0.6265663774136326  0.9999967537933105  0.1893373555704978
  0.8660349462770719 -0.0032002689559504  0.1885277592774099
  0.1262926163731979  1.0005466374622640  0.9288646513392027
  0.3726297355796924 -0.0016176018775588  0.9452880935978167
  0.1164586205051071  0.9959656064704487  0.6725293207293990
  0.6259507630919050  0.9986428594131154  0.9239443235674579
  0.8767416769515507 -0.0019196874602069  0.9365535331013073
  0.8596394880680451  0.0042019567858762  0.6830131495159134
  0.1251142985038698  0.9997746311502737  0.1926452977911558
  0.3849605363502120  0.0030523362732902  0.6915027706837474
 -0.0000456806045105  0.3036536632997527  0.0629170155777855
  0.2503657584764997  0.6963406163621582  0.0634848404543973
  0.2498606780527954  0.3018337885387680  0.3115888176041632
  0.5019778333412950  0.7054128500915366  0.3130547223124190
  0.5001783740706599  0.2951446911663878  0.0630292690227660
  0.7493850589841788  0.7039149467487569  0.0618883186651046
  0.7478639957261650  0.2955990874035863  0.3125784650035154
  0.9981791850223738  0.6985812262622993  0.3111118358263393
 -0.0040573900478508  0.2936884087996370  0.5645551260114260
  0.2505132136088961  0.7000076931269587  0.5647904524395787
  0.2502247018589758  0.3050670678234026  0.8118206269531235
  0.5000601830285121  0.6991236475869883  0.8131685070812561
  0.4978252541534374  0.3023702210096476  0.5603835632870401
  0.7531062442788812  0.7073998178477329  0.5606292269244550
  0.7514414765123185  0.2906256524057432  0.8131975620352437
  0.9995998101425101  0.7040906256435904  0.8122889168114317
  0.2497292653362256  0.3470910725599216  0.0631537651770503
  0.0010930852088764  0.6537394479535418  0.0627126561621880
  0.4993048368807818  0.3457028329389069  0.3113433485136265
  0.2481032095094926  0.6669090939318334  0.3122292084079842
  0.7511655229686600  0.3422547495740711  0.0629757918876267
  0.4990224168785815  0.6591290989737753  0.0634768476095639
  1.0014956063658544  0.3321859075943256  0.3123982925494553
  0.7505930277378747  0.6543983209494626  0.3113951385883157
  0.2496891694562955  0.3393849808671583  0.5639837365230479
  0.0008977454673874  0.6629031491604879  0.5640011530477804
  0.5000946829748262  0.3326756887071552  0.8116363455136643
  0.2510543399161037  0.6513526569454363  0.8137053345514424
  0.7485068106974643  0.3375983589627883  0.5615195006258616
  0.5003317198248947  0.6618668956133088  0.5641598307609059
  1.0016186875625903  0.3434109038100194  0.8136389470234811
  0.7487565498369321  0.6659198575429168  0.8143113747778734
  0.4985402265590235  0.0772041827778033  0.0631833101215515
  0.2417038619398359  0.9192512923668275  0.0667727903411851
  0.2574292259226619  0.0846814004160824  0.2921351239104840
 -0.0070841033682375  0.9155564256462536  0.2914476824724017
  1.0097897659948574  0.0819203099987637  0.0677184135095914
  0.7513248299655286  0.9215277101273578  0.0637433637476949
  0.7477678354973322  0.0787617926981386  0.3085530081993215
  0.5001412376022651  0.9228152598643532  0.3126298673177549
  0.4803989388360477  0.0849901905446069  0.5550466974552425
  0.2649531117643244  0.9158185185111438  0.5823568132855730
  0.2598162006066430  0.0832041096204023  0.8106917964833140
  0.0059320383699608  0.9210786592195723  0.8166971512658985
  0.9861103591572696  0.0806804275492741  0.5766600325092800
  0.7622573775430909  0.9200316932685372  0.5454451562617135
  0.7619941356925584  0.0777384888098427  0.8252974721562105
  0.4824189581544854  0.9164379835408559  0.8225621726807391
