Li Mg Bi  S  O 
 1.0000000000000000
    11.1784999999999997    0.0000000000000000    0.0000000000000000
     0.0000000000000000    9.5746000000000002    0.0000000000000000
     0.0000000000000000    0.0000000000000000   11.1823999999999995
 Li  Mg  Bi  S   O  
  12   2  16  16  16
Direct
  0.3572819651700312  0.0067877958981105  0.4419449530137594
  0.1270332298304693  0.9993327849754363  0.1974757604151997
  0.3766501855455414  0.0017515421829284  0.1839098751608558
  0.8970741370300622  0.0004678540632718  0.4323218739177163
  0.6245279121870756  0.9989134679456295  0.1842785919593982
  0.8749557157807522 -0.0017750925647697  0.1851798468447076
  0.1251317378493322  1.0024846040842923  0.9368665717204598
  0.3725100630608128 -0.0008176393496998  0.9377525150035575
  0.1332107883873253  1.0037780495077013  0.6771161786616032
  0.3904855184050571 -0.0019653188785133  0.6878724364914119
  0.6234587535180376  1.0021595389732705  0.9233753408339936
  0.8757522866446450  0.0019899526993832  0.9441548040306393
  0.6274497516335455  0.9971936309684472  0.4451308209002309
  0.8617047626564716 -0.0043891324604285  0.6900231956281785
  0.0000709758262604  0.2960383777165947  0.0628485508433893
  0.2502462043936933  0.7056822441516253  0.0624136027658020
  0.2501752119929039  0.2921025848494780  0.3114658546039754
  0.5017893769542302  0.6945993133925282  0.3119808944851522
  0.4987259023296359  0.2953198021890017  0.0624499257481637
  0.7508642004607746  0.7055963089090188  0.0632665228023456
  0.7493136172506695  0.3035562903118166  0.3119789579983606
  1.0015891176391221  0.7069253899084753  0.3105656242222999
 -0.0009900158461209  0.3000694716478449  0.5648771200847827
  0.2522251820064077  0.7096157857997781  0.5641680187793781
  0.2492952755018604  0.2963253372981782  0.8122701383302561
  0.4969962051697986  0.7072593756715080  0.8150249763682533
  0.4981462645591173  0.3023723806163703  0.5606722751187642
  0.7512252979557450  0.6903058487162714  0.5620988012313266
  0.7498451861172917  0.3012333747083010  0.8152238741419870
  1.0000624095496717  0.6967145720880781  0.8116853967595153
  0.2502017286019819  0.3448245529321931  0.0619420636131340
  0.0008157521837390  0.6579306988927719  0.0622521983873977
  0.5013115512451597  0.3488012240654926  0.3128845201736367
  0.2523159152852742  0.6688492506222052  0.3134756733328187
  0.7509857524712795  0.3420684565734369  0.0635724279238677
  0.5007701647549655  0.6566963756570697  0.0635467570267556
  0.9990809470753916  0.3317247095130091  0.3137298367137638
  0.7502763749666679  0.6507794819282754  0.3139639405182776
  0.2513301698928135  0.3348132478658374  0.5630206689453459
 -0.0009526525999333  0.6608108392920661  0.5631489924271303
  0.5017701974869596  0.3318076267742886  0.8139414669923831
  0.2497210112129829  0.6554477796889725  0.8122990342736510
  0.7471833095624398  0.3400111260519294  0.5642747181611260
  0.5041164511192510  0.6616147681807638  0.5638907035865378
  0.9993498437969925  0.3510258360482783  0.8110873921440915
  0.7516824179538143  0.6663304864937473  0.8120854700308304
  0.4999955033897460  0.0776394919489616  0.0659435189239531
  0.2500541571842097  0.9229191269005973  0.0602312865099456
  0.2654959229334093  0.0795104614245895  0.2983420476231979
 -0.0123485706556542  0.9199574028986076  0.2973460488544856
  1.0008446876240880  0.0785855990779983  0.0586598668015763
  0.7509002767021938  0.9234503144681693  0.0654130732169386
  0.7415625455323689  0.0825430873962102  0.3213202989849059
  0.5160097946090162  0.9148223445314568  0.3170281548497597
  0.4954487470682722  0.0850100293019130  0.5410848394892541
  0.2663874640789694  0.9222670457761355  0.5791517055625393
  0.2434606968543537  0.0794992088264964  0.8152706469562767
 -0.0116377634768697  0.9176987266652801  0.8069516996807753
  0.9810137288623870  0.0839551647873146  0.5810490575065602
  0.7614029276748613  0.9140944077863961  0.5508340530662756
  0.7656793875937479  0.0831937741617971  0.8216262869501716
  0.4882082720955686  0.9205753455295050  0.8256791082588010
