Li Mg Bi  S  O 
 1.0000000000000000
    11.1784999999999997    0.0000000000000000    0.0000000000000000
     0.0000000000000000    9.5746000000000002    0.0000000000000000
     0.0000000000000000    0.0000000000000000   11.1823999999999995
 Li  Mg  Bi  S   O  
  12   2  16  16  16
Direct
  0.3542567518725792 -0.0005550439575985  0.4353758566604989
  0.1245815370428957  1.0004449528523436  0.1976608403084424
  0.3690938943484531  0.0014230627259497  0.1819153141576645
  0.6246537558421354  0.9999366092840762  0.4379294623655842
  0.8947282665790209  0.0005858123562332  0.4376323707149623
  0.8802470459064404 -0.0018078194097239  0.1836504526644851
  0.1254535210548055  0.9999248084936986  0.9372957656272992
  0.3854794423129864 -0.0001306293351872  0.9368838246620188
  0.1253837641448609  1.0010083123434386  0.6746611524621516
  0.3696579899463293 -0.0011680098624604  0.6909879179848646
  0.8648392219869664  0.0012237329948011  0.9363983698650755
  0.8817174032243340  0.0030844137236779  0.6915789324531116
  0.6250901964423294  0.9994691851416518  0.1796092796366810
  0.6254414867449049  1.0004560554810555  0.6958066949417968
  0.0000106200795011  0.2956639734167059  0.0620557451139085
  0.2491059647758087  0.7042576292425059  0.0618961294038632
  0.2498427594769401  0.2926624171864833  0.3121126446317724
  0.5012903791907392  0.6947393716017860  0.3108483682872785
  0.4977913400743832  0.3010983836813699  0.0636471617149789
  0.7537217776640238  0.6988693195740653  0.0625490279257905
  0.7483629055828224  0.3036939311410509  0.3114760216246041
  0.9998416247690232  0.7081068194741135  0.3122600068964537
 -0.0014702205153423  0.2940586819886599  0.5625683103609188
  0.2503967207111644  0.7080862210683984  0.5619888359534634
  0.2481555731257384  0.2955892821065268  0.8128026902429595
  0.4973708930314220  0.6981411949507510  0.8105971600061904
  0.5005493999404077  0.3055412663214798  0.5644740531666695
  0.7501807420600375  0.6960845849733203  0.5639014577405351
  0.7518895233151414  0.3030528119404308  0.8113369711084665
  1.0020544517445744  0.7051153274883940  0.8126202406417850
  0.2508930966129263  0.3462976648418163  0.0628039138879182
 -0.0001426388057658  0.6555999372387084  0.0620931927801330
  0.5020877464138087  0.3479663971286293  0.3133766007946097
  0.2513395006012785  0.6687782031953944  0.3125332610850529
  0.7479243799059893  0.3358533798678026  0.0632528472557918
  0.5007450470217653  0.6642587336200306  0.0627024481056281
  0.9987427420829396  0.3339959840274876  0.3119733764469007
  0.7490461059460212  0.6517760090731649  0.3114883104007227
  0.2525129311099121  0.3316762722716971  0.5624198126709302
 -0.0018737180925836  0.6664997373010080  0.5635890565572386
  0.5010890021992218  0.3336757882744236  0.8135345281260308
  0.2506741360394763  0.6544219408818231  0.8123991223015692
  0.7493021910439355  0.3501455166271746  0.5638719366510325
  0.5008700538714457  0.6525378108782928  0.5621181060813470
  0.9998422929126620  0.3470304006645392  0.8129929271415544
  0.7478491013227498  0.6648137161233084  0.8124035250713337
  0.4939440506781899  0.0833417802256558  0.0793181293151223
  0.2507807789728318  0.9214091302153151  0.0589877451367856
  0.2635266311130970  0.0798632360403038  0.2989372463560926
 -0.0134727860375142  0.9209070098784240  0.3007274125727583
  0.9994320020608219  0.0786129462486085  0.0600924434603540
  0.7563653170556910  0.9167164046048907  0.0787176517851883
  0.7376063513932853  0.0827544461205122  0.3061084995538532
  0.5125889079662572  0.9155760448387807  0.3051315416287824
  0.5126956249414435  0.0846213572970130  0.5705734143019301
  0.2633692546294040  0.9210698361382125  0.5737475723015063
  0.2496168583599622  0.0785075838855713  0.8145212846593974
 -0.0003022719131053  0.9221923598575469  0.8147298762793397
  0.9862453538981911  0.0808324343422263  0.5742689300559196
  0.7378471869769313  0.9172840577631841  0.5699582466576251
  0.7572100210333794  0.0854443214073895  0.7957735170742408
  0.4935168332005992  0.9160512580231468  0.7952144942007456
