Li8 Mg4 Bi16 S16 O16                    
   1.00000000000000     
    11.1849182273468539   -0.0200048941983689    0.0041798008462665
    -0.0163145668953094    9.5495223306518344    0.0056193089150641
     0.0041342189645678    0.0077237549270657   11.2333240828842698
   Li   Mg   Bi   S    O 
     8     4    16    16    16
Direct
  0.1253897809045010  0.9947930946508446  0.2215234679261848
  0.8967964823276301 -0.0299721718467359  0.4783382374180111
  0.6375240288426529  0.0002857454415174  0.1747802251548928
  0.8791171380415710  0.0133977939930154  0.2050140922677222
  0.1853759481556689  0.0418052961765696  0.6590935186796987
  0.8770077257881057 -0.0001584527347925  0.9591761672050002
  0.5701335037857312  0.9694011409495490  0.6510273553500767
  0.9089791539579111  0.0279886088577229  0.7424519619804063
  0.3839383988291042 -0.0062277810219702  0.1690538349855845
  0.6214219479213260 -0.0022051529140122  0.4105639895591718
  0.1293579015542095 -0.0021441796585539  0.9526038694651746
  0.6264371839472285  0.0091148271078428  0.9306247308495152
  0.0011141408750213  0.3062275788411379  0.0655684834958204
  0.2438461586497735  0.6838306097918604  0.0624491188861924
  0.2516383469222973  0.2982280672103167  0.3134435988975524
  0.4956865824636008  0.6879538753346132  0.3084850469169822
  0.5006980018530315  0.3089309369632450  0.0585974472139111
  0.7466869037310532  0.6938992819866975  0.0572393936526032
  0.7486586123068817  0.3105354736208304  0.3113307178917371
 -0.0042752882075793  0.7011692079643069  0.3155810457168383
 -0.0044600643699436  0.2952228320201297  0.5677797347107955
  0.2459238407899412  0.7127944227094205  0.5614071354786878
  0.2457194648302226  0.3108963263546465  0.8135832163621178
  0.5006195211439672  0.6972928714846086  0.8090156221387949
  0.4985902809587731  0.3003227389088617  0.5575965488131982
  0.7441898706463945  0.6868194900052337  0.5540726061241628
  0.7517544751456618  0.3130828321349086  0.8137927686485869
 -0.0015663281800691  0.6970357751336695  0.8162233616444733
  0.2447236603053504  0.3539770174280468  0.0609875156363805
 -0.0051033456695534  0.6456579885992619  0.0657387004781280
  0.4963259637180976  0.3563495679890801  0.3102982922279817
  0.2475545004580357  0.6592005023107733  0.3102901454280334
  0.7438198343832088  0.3569495303100736  0.0614191733685229
  0.4959934458213924  0.6504150486252739  0.0626488639871072
  0.9953858655479341  0.3234994069382666  0.3097399841062267
  0.7460452572797419  0.6429563130002698  0.3101831509824628
  0.2459213112429802  0.2926719244754457  0.5639113937413256
 -0.0096648381036041  0.6938269436091015  0.5644915367750003
  0.5013336697466930  0.2992648168020602  0.8144482567389835
  0.2444237110079188  0.6716788934117587  0.8167836122392522
  0.7474509703368438  0.3471596790758475  0.5597630814869969
  0.4962990897774202  0.6565661077688943  0.5640739493446263
  0.9968404243876009  0.3644976671421888  0.8110126208014522
  0.7457384116519711  0.6479803825103189  0.8153201123456296
  0.5160559837390967  0.0847091838100025  0.0663896958902657
  0.2414357099174180  0.9081880647664736  0.0741877002150539
  0.2665711480138274  0.0938300927967405  0.2655976241750410
 -0.0167282303080456  0.9150732717506455  0.3079868238680371
  0.0049209770629639  0.0841743664262119  0.0669474703460656
  0.7405185164951756  0.9166651420310397  0.0517992262687952
  0.7353052304380219  0.0896575866595381  0.2960830130726854
  0.5149141552948859  0.9097111837500497  0.2810048780730442
  0.5294330974644386  0.0933774159941380  0.5319078008167409
  0.2591806250656001  0.9171244336536094  0.5642938973540528
  0.2077342324006957  0.1019808943223697  0.8246552908335941
 -0.0053577128538087  0.9116817911734920  0.8557628516956707
  0.9790597770094047  0.0852541426540948  0.5963487698171486
  0.7286815163900685  0.9025263349322238  0.5269105577741259
  0.7689386665393169  0.0959769521085929  0.8434836946849291
  0.5391646618242368  0.9068262637086070  0.8077130179927776
 
  0.00000000E+00  0.00000000E+00  0.00000000E+00
  0.00000000E+00  0.00000000E+00  0.00000000E+00
  0.00000000E+00  0.00000000E+00  0.00000000E+00
  0.00000000E+00  0.00000000E+00  0.00000000E+00
  0.00000000E+00  0.00000000E+00  0.00000000E+00
  0.00000000E+00  0.00000000E+00  0.00000000E+00
  0.00000000E+00  0.00000000E+00  0.00000000E+00
  0.00000000E+00  0.00000000E+00  0.00000000E+00
  0.00000000E+00  0.00000000E+00  0.00000000E+00
  0.00000000E+00  0.00000000E+00  0.00000000E+00
  0.00000000E+00  0.00000000E+00  0.00000000E+00
  0.00000000E+00  0.00000000E+00  0.00000000E+00
  0.00000000E+00  0.00000000E+00  0.00000000E+00
  0.00000000E+00  0.00000000E+00  0.00000000E+00
  0.00000000E+00  0.00000000E+00  0.00000000E+00
  0.00000000E+00  0.00000000E+00  0.00000000E+00
  0.00000000E+00  0.00000000E+00  0.00000000E+00
  0.00000000E+00  0.00000000E+00  0.00000000E+00
  0.00000000E+00  0.00000000E+00  0.00000000E+00
  0.00000000E+00  0.00000000E+00  0.00000000E+00
  0.00000000E+00  0.00000000E+00  0.00000000E+00
  0.00000000E+00  0.00000000E+00  0.00000000E+00
  0.00000000E+00  0.00000000E+00  0.00000000E+00
  0.00000000E+00  0.00000000E+00  0.00000000E+00
  0.00000000E+00  0.00000000E+00  0.00000000E+00
  0.00000000E+00  0.00000000E+00  0.00000000E+00
  0.00000000E+00  0.00000000E+00  0.00000000E+00
  0.00000000E+00  0.00000000E+00  0.00000000E+00
  0.00000000E+00  0.00000000E+00  0.00000000E+00
  0.00000000E+00  0.00000000E+00  0.00000000E+00
  0.00000000E+00  0.00000000E+00  0.00000000E+00
  0.00000000E+00  0.00000000E+00  0.00000000E+00
  0.00000000E+00  0.00000000E+00  0.00000000E+00
  0.00000000E+00  0.00000000E+00  0.00000000E+00
  0.00000000E+00  0.00000000E+00  0.00000000E+00
  0.00000000E+00  0.00000000E+00  0.00000000E+00
  0.00000000E+00  0.00000000E+00  0.00000000E+00
  0.00000000E+00  0.00000000E+00  0.00000000E+00
  0.00000000E+00  0.00000000E+00  0.00000000E+00
  0.00000000E+00  0.00000000E+00  0.00000000E+00
  0.00000000E+00  0.00000000E+00  0.00000000E+00
  0.00000000E+00  0.00000000E+00  0.00000000E+00
  0.00000000E+00  0.00000000E+00  0.00000000E+00
  0.00000000E+00  0.00000000E+00  0.00000000E+00
  0.00000000E+00  0.00000000E+00  0.00000000E+00
  0.00000000E+00  0.00000000E+00  0.00000000E+00
  0.00000000E+00  0.00000000E+00  0.00000000E+00
  0.00000000E+00  0.00000000E+00  0.00000000E+00
  0.00000000E+00  0.00000000E+00  0.00000000E+00
  0.00000000E+00  0.00000000E+00  0.00000000E+00
  0.00000000E+00  0.00000000E+00  0.00000000E+00
  0.00000000E+00  0.00000000E+00  0.00000000E+00
  0.00000000E+00  0.00000000E+00  0.00000000E+00
  0.00000000E+00  0.00000000E+00  0.00000000E+00
  0.00000000E+00  0.00000000E+00  0.00000000E+00
  0.00000000E+00  0.00000000E+00  0.00000000E+00
  0.00000000E+00  0.00000000E+00  0.00000000E+00
  0.00000000E+00  0.00000000E+00  0.00000000E+00
  0.00000000E+00  0.00000000E+00  0.00000000E+00
  0.00000000E+00  0.00000000E+00  0.00000000E+00
