Li Mg Bi  S  O 
 1.0000000000000000
    11.1784999999999997    0.0000000000000000    0.0000000000000000
     0.0000000000000000    9.5746000000000002    0.0000000000000000
     0.0000000000000000    0.0000000000000000   11.1823999999999995
 Li  Mg  Bi  S   O  
   8   4  16  16  16
Direct
  0.3246752719188908  0.0080959433805944  0.4465653225068608
  0.0558514655235286  0.9976636038552453  0.1866773248486587
  0.3775022157357516 -0.0021613402473705  0.1820896081927408
  0.6218443339597013  1.0022901346580062  0.4269123360024373
  0.6736680068839878  0.9871730314612125  0.1964867494729896
  0.3930596961175119 -0.0025876425523727  0.6801505184681977
  0.6197114781584465  1.0008975935451696  0.9339858387214702
  0.6597687262409108  1.0144004973138538  0.6651030541611883
  0.8846148569271469  0.0015285693913411  0.4422052601879533
  0.3587937291166347  0.0018026007399909  0.9287360127018351
  0.1167707225136074  0.9994347740068292  0.6895823690243065
  0.8799631215652459 -0.0029123955201848  0.9261022491665679
 -0.0049636280539268  0.3000321166164768  0.0607173096313770
  0.2526684938992397  0.6928219051091487  0.0620840346348963
  0.2555271516594473  0.2925334959260399  0.3036670747556259
  0.5031326083813777  0.7092000676105000  0.3035330920342496
  0.4961334045182703  0.3074700184813864  0.0544475832100997
  0.7498193991490749  0.6960508924672687  0.0547407575105068
  0.7502875100398296  0.3060139298836829  0.3141605249524640
  1.0008766366078441  0.6930228051874789  0.3126055239506146
  0.0041069460002682  0.3032915078276395  0.5583066688037843
  0.2505753615774546  0.6969236669739799  0.5619796931662290
  0.2506708388803567  0.3092741229015677  0.8061778381739825
  0.4963910428137109  0.6946455270869644  0.8111227705304299
  0.5020149039132592  0.2968447756157068  0.5574510070636192
  0.7464768796040270  0.6986637509073356  0.5542024841151567
  0.7499590956313049  0.3020368309115750  0.8111492145339129
  0.9980977007662927  0.6906692192899885  0.8109361060831870
  0.2492882528280047  0.3421978875009906  0.0583704197732019
 -0.0013290071897034  0.6683925781407944  0.0603118158912644
  0.5034693437025906  0.3447992346857184  0.3098481568359135
  0.2499073160936283  0.6660750942823229  0.3141143325072959
  0.7522987314993906  0.3446549240778608  0.0590911334483868
  0.4974765486864040  0.6451116780088808  0.0572197466144801
  1.0009652965463023  0.3274418280828407  0.3118837344354599
  0.7494652951680258  0.6461740797070347  0.3095219847618603
  0.2515342633853831  0.3405539445863460  0.5579986947770330
 -0.0042250542803496  0.6567166352052216  0.5619349292132531
  0.4995104153243925  0.3513275058837395  0.8081827315841501
  0.2457637955338899  0.6479856603302550  0.8065388227045078
  0.7502978453014733  0.3435937097738826  0.5644502471397481
  0.4991624496210684  0.6607254209125475  0.5606095636687641
  1.0034703007770946  0.3371616538214924  0.8083410405367440
  0.7487651114005431  0.6565733448365023  0.8121556318099644
  0.4834264678758338  0.0905590969025080  0.0351606822198059
  0.2761513188660101  0.9050274527004181  0.0584369268902455
  0.2695491092221498  0.0811773999210814  0.3000035933296029
 -0.0162670884051759  0.9058675807659080  0.3201075980879218
  0.9834891324527827  0.0867227445293686  0.0503037878773327
  0.7453418514655458  0.9139799598463964  0.0372813321283518
  0.7538869291967618  0.0896003214615096  0.3341729017383704
  0.5234961195033472  0.9220391770830688  0.2894528152620102
  0.5081023227381396  0.0800120129232676  0.5626719150117407
  0.2521383267705995  0.9148661898077892  0.5841926227112424
  0.2582267671360044  0.0854357205785946  0.7941126498680590
  0.0002757522482119  0.9103764060092203  0.8078978928460578
  1.0025573280791615  0.0847982579934898  0.5650040313319445
  0.7463901160044898  0.9161522518250460  0.5362921170599887
  0.7458269497594188  0.0839369921406506  0.8219146433424734
  0.4838914706668108  0.9144696332645559  0.8201574243192264
