Li Mg Bi  S  O 
 1.0000000000000000
    11.1784999999999997    0.0000000000000000    0.0000000000000000
     0.0000000000000000    9.5746000000000002    0.0000000000000000
     0.0000000000000000    0.0000000000000000   11.1823999999999995
 Li  Mg  Bi  S   O  
   6   5  16  16  16
Direct
  0.0979368792377378  1.0050947155753478  0.2502072516083775
  0.3598783439248138 -0.0105330659469558  0.1591192284087334
  0.6415346363089154  0.9578887776553908  0.2937168761473804
  0.8562619417535570  0.0081379755616335  0.1708008461912469
  0.6044635962831890  0.9879812062987988  0.9496445314004018
  1.0414681478617092 -0.0061436365085961  0.9504237836221587
  0.3567896114585131 -0.0146035540876324  0.4391592861920225
  0.8591320718064215 -0.0040046788780368  0.4580175560846655
  0.3457334614492076 -0.0148789242052506  0.8989449683171146
  0.1173871197053526  1.0018878823044095  0.6656148061018192
  0.5909782609077006  0.9721652031850907  0.6772024331313948
 -0.0233427682662888  0.3046065768163844  0.0552555577448171
  0.2259378880774302  0.6875904135417868  0.0595692277256126
  0.2377302099186439  0.2905120870362852  0.2839598150587087
  0.4716658769083059  0.6758020715173528  0.3171807832056570
  0.4856036564026154  0.2881217576963072  0.0388389482343849
  0.7276186125201758  0.7137154898803855  0.0737321022697545
  0.7403616996630075  0.3009498945863686  0.2989699055472174
  0.9761046630598049  0.6928436930222990  0.3192496026398613
 -0.0192327634747225  0.3094913195017303  0.5522381969218167
  0.2257734165190521  0.6831380698931818  0.5675782253138070
  0.2273314352735054  0.3066225577158770  0.7957129478839159
  0.4798771921531456  0.6610863020225654  0.8261866846277884
  0.4874681913238915  0.2857080744532401  0.5482971459212076
  0.7261370748415938  0.6803316735857118  0.5698700575774687
  0.7284586590561445  0.2770390177242824  0.8039124796467374
  0.9806656703716231  0.7052782902717769  0.8125312596126583
  0.2456465422177964  0.3362180391855705  0.0416755441146346
 -0.0225151689612393  0.6883172900143709  0.0705248570980091
  0.4926485611043432  0.3214183751731620  0.2956748191337422
  0.2228579433339588  0.6638157962188465  0.3252563985469868
  0.7382348129474092  0.3232831436757594  0.0504974354760498
  0.4696770300574475  0.6365035473557175  0.0736730135656029
  0.9847902185398411  0.3589333682185931  0.3021168267815365
  0.7237137873142900  0.6578601034530243  0.3227547906487811
  0.2425344408060180  0.3315672817032296  0.5381092652893641
 -0.0311797183087995  0.6545260094729795  0.5700315892895085
  0.4912924867552391  0.3425815085162175  0.7948343536812518
  0.2125251661904728  0.6294978685974401  0.8158210741718998
  0.7359411014706528  0.3395868188398214  0.5452926793980747
  0.4649962316632297  0.6525971062517236  0.5837387618493690
  0.9755341162672916  0.3343969111901849  0.7928697363388478
  0.7229718947326770  0.6543154358520450  0.8240506098674955
  0.4564433574006985  0.0741377118022983  0.0210324406518870
  0.2519665055242072  0.8987080202181987  0.0341709353101911
  0.2572886519319782  0.0752097501248384  0.3003828375610129
 -0.0377442351923504  0.9097619574572041  0.3252025067522929
  0.9959508464520803  0.0946796498282919  0.0884916708059524
  0.7150737975736084  0.9243257895992119  0.0905964488876189
  0.7658872969396116  0.0879077023386097  0.3238883089525168
  0.4720798157794495  0.8947549026912849  0.3178337603850495
  0.4806980532137027  0.0675248322335374  0.5565115451729599
  0.2351782368822552  0.9023219700057361  0.5566260759890184
  0.2294479832480971  0.0867945352847435  0.7926121617684845
  0.0223659823633809  0.9122463347928405  0.7968800106511813
  0.9902154854423098  0.0897803900419812  0.5556946371137027
  0.7257874357914634  0.8999868801854569  0.5587623231319973
  0.6811685857736323  0.0711477924719089  0.8034006528702381
  0.4823409520623601  0.8837649563903437  0.8146776981944002
