Li Mg Bi  S  O 
 1.0000000000000000
    11.1784999999999997    0.0000000000000000    0.0000000000000000
     0.0000000000000000    9.5746000000000002    0.0000000000000000
     0.0000000000000000    0.0000000000000000   11.1823999999999995
 Li  Mg  Bi  S   O  
  12   2  16  16  16
Direct
  0.3662551387965489  0.0022270872372108  0.4321676601937448
  0.1251870058384290  1.0002460090125400  0.1995615309297552
  0.3777426009638727  0.0003839013467817  0.1873205104743425
  0.6262039788285210  1.0000825445654560  0.4479759020558476
  0.8853095054209328 -0.0014942518415539  0.4326176993426850
  0.6252471082590232  1.0000305529077109  0.1896104591210040
  0.8729655941465715 -0.0000022314537899  0.1876185228943844
  0.1250751327301025  1.0006115439459164  0.9382818270182014
  0.3744636152191721 -0.0021308830835487  0.9450191293446728
  0.1247573220907656  1.0002753529031558  0.6718829189612685
  0.6249209862457227  1.0002888005059605  0.9267045075947482
  0.8741329582871017  0.0028231305362319  0.9459265720540881
  0.3872832405122387  0.0027181850143957  0.6909635152196580
  0.8623148715212735 -0.0021026886141209  0.6910746375685026
 -0.0002786588809978  0.2961193127072187  0.0627758981558303
  0.2500173112684017  0.7047052138671898  0.0630667110340479
  0.2493856497372788  0.2921352923441738  0.3108840648905355
  0.5006345203743540  0.7050353099049741  0.3120627540662589
  0.4991781494418094  0.2947734808177885  0.0639314526313299
  0.7503289725646781  0.7054808484049657  0.0636273459670847
  0.7492128189741525  0.2955700229534861  0.3115277240077011
  0.9999298181324622  0.7084536733202578  0.3110140336170760
 -0.0030443425809590  0.3008474014753049  0.5639478809529648
  0.2517836683513830  0.6998090155740950  0.5630261737156521
  0.2508388001520516  0.3041539514182857  0.8121223670262901
  0.4985177895445327  0.6983519883734649  0.8140541687089309
  0.4973910590810409  0.3028719534163373  0.5587079623670751
  0.7521693464502046  0.6973547239793652  0.5597172522683922
  0.7501544723331744  0.3015089622194012  0.8147392422344052
  0.9993981014069857  0.6972781052077546  0.8119460303070414
  0.2509217616557582  0.3421256366589369  0.0609001375287230
  0.0008561074264922  0.6590500906149696  0.0615489523039019
  0.5010333253297389  0.3451856129903043  0.3117865267109912
  0.2512695617355717  0.6676558559704436  0.3133474382837341
  0.7508176910311789  0.3424027164678594  0.0622448145009752
  0.5005817938084868  0.6579858349795200  0.0622961214505686
  0.9996509874867388  0.3339066076292482  0.3124199987344691
  0.7494836031045916  0.6549125227859459  0.3126050977888445
  0.2497616331714827  0.3386783084706165  0.5644229733790116
 -0.0003088257827381  0.6600425031139435  0.5646353714267761
  0.5006193021261880  0.3318938435394346  0.8117516496781805
  0.2507893085476552  0.6525675941983775  0.8124674804071287
  0.7493351364223123  0.3375140880639222  0.5644981538131313
  0.5019482161710537  0.6618349667673034  0.5648488228499413
  1.0003142960771945  0.3480390049223472  0.8118237964763717
  0.7506378858494422  0.6660125598307162  0.8124282196809202
  0.5002546745498536  0.0770654992049095  0.0630865282354735
  0.2495006217349617  0.9221941644158465  0.0587161915517075
  0.2631386548777377  0.0795293142649531  0.2982769166265006
 -0.0125220970046076  0.9212073279644323  0.2984460650238908
  1.0010452300368731  0.0785951104368050  0.0585013594084693
  0.7498552001966902  0.9231345286104643  0.0631463503235443
  0.7478687147102386  0.0784771302159895  0.3119904519685162
  0.5026264486292338  0.9220589248019837  0.3124014138003315
  0.4829334017003344  0.0851410932764058  0.5547562917363906
  0.2668079645756162  0.9152951816554026  0.5825796588159997
  0.2578538167928555  0.0822904292567134  0.8063114361664838
 -0.0082654701502177  0.9187708311109873  0.8060852182698863
  0.9826811889879398  0.0846557051076884  0.5818649831534819
  0.7673398941340942  0.9151291549420851  0.5545551297703973
  0.7650422839175213  0.0833802339570254  0.8228005195357028
  0.4843532264082890  0.9162816848010183  0.8223197882129900
