Li4 Mg6 Bi16 S16 O16                    
   1.00000000000000     
    11.2059838801407423   -0.0664562754985194   -0.0338347457528462
    -0.0565467975661114    9.6956738691840680    0.5013381423479358
    -0.0311424495732904    0.5950842864076118   11.2363647398447348
   Li   Mg   Bi   S    O 
     4     6    16    16    16
Direct
  0.4075424768850718  0.0159182796987069  0.4770392198625500
  0.6269257129960306 -0.0296092586576185  0.1975499628854641
  0.1678142823234776  0.0656139124785118  0.6693805924802089
  0.8718138029840031 -0.0026791404766156  0.9392663913093673
  0.3770039205540988 -0.0231688803646582  0.1560615879328423
  0.8832084212301785 -0.0233512406266297  0.1757894113937579
  0.1188695853033177 -0.0013890475549761  0.9518851526117734
  0.6273236943947450 -0.0034774786524887  0.9490519849551713
  0.6238196771444993  0.0177752939683461  0.6869044140768497
  0.8897694493230388  0.0208468724919300  0.7083090550553475
  0.0019000968809237  0.3020561370423707  0.0641737274011121
  0.2493839904921291  0.6822305657150028  0.0686838736717534
  0.2637384292604169  0.2451069847825234  0.3161710738696697
  0.4962312846319243  0.6595890339672590  0.3185366050410513
  0.5062529008692503  0.3001761200668344  0.0601786880097098
  0.7472376495818283  0.6733689931805974  0.0683776346294025
  0.7542759190957434  0.2445785733965134  0.3178007041879369
  0.0014057196060631  0.6636254011658043  0.3149173797309920
  0.0071282409956852  0.3359778274849379  0.5584789146065356
  0.2455876499657598  0.7667461636002565  0.5572204257116544
  0.2452378464994207  0.3203693455345915  0.8130698834997113
  0.5027357842235510  0.6963994688079005  0.8070625573915017
  0.5038135375041648  0.3282189071011066  0.5578765497621816
  0.7565305916056554  0.7449831059632107  0.5582403380408290
  0.7531906546177475  0.3291049324356817  0.8085122186954646
  0.0016525412129355  0.6945817810591004  0.8165449291624580
  0.2476066599484864  0.3197078210111686  0.0793902210905272
  0.0005507493730288  0.6236313587793880  0.0596966598424035
  0.4963285324067603  0.3363741213777332  0.3154257835721738
  0.2494089424796549  0.6283160571288137  0.3047606803422710
  0.7478667607951756  0.3450616795278397  0.0797139522606512
  0.5003306118537012  0.6230215405777753  0.0465550175726083
 -0.0073099151165317  0.2828282942617486  0.3193384427559662
  0.7481003701635103  0.6259916976518703  0.3004464583878177
  0.2536742747095295  0.3591422915959637  0.5741839487406044
 -0.0030599548572544  0.7006910360143964  0.5613353699182605
  0.5049063062190603  0.3395068120856161  0.8180874492909916
  0.2453012022283179  0.6858003865579709  0.7980581218190220
  0.7529130981924105  0.3660849663545833  0.5741286984622705
  0.5005569193093851  0.7441744190071466  0.5456345602624553
  0.0003517693987024  0.3812888629982480  0.8179844536835940
  0.7464481213588349  0.6394605769177171  0.7909644016560970
  0.5208077484797253  0.0788047813115307  0.0647742103622209
  0.2458545886524448  0.9004213894230840  0.0566196650771500
  0.3326770364676844  0.0548623322932184  0.3041058452210796
 -0.0017006946304290  0.8657082401051844  0.2646959925030793
  0.9827745230513095  0.0830585179955174  0.0438094138470216
  0.7559480972018494  0.9024288386878309  0.0561011506232029
  0.7573113905758425  0.0466825280800890  0.2727378180088154
  0.4986225219751945  0.8542375076392338  0.2338838040097105
  0.5182735518273192  0.1176721590777840  0.5718951116661889
  0.2606888657771406  0.9714312600763915  0.5651723100086939
  0.2045263591632428  0.1141856119014932  0.8274333907559914
 -0.0141873678754484  0.9149287888118257  0.8407989714005002
  0.0087061156682513  0.1322323715802046  0.6213471363485696
  0.7642845315452937  0.9423463981882091  0.6128175699218046
  0.7492807852404072  0.0933679976908061  0.8172613133871823
  0.5509836382357362  0.9026767016813991  0.8226188012258118
 
  0.00000000E+00  0.00000000E+00  0.00000000E+00
  0.00000000E+00  0.00000000E+00  0.00000000E+00
  0.00000000E+00  0.00000000E+00  0.00000000E+00
  0.00000000E+00  0.00000000E+00  0.00000000E+00
  0.00000000E+00  0.00000000E+00  0.00000000E+00
  0.00000000E+00  0.00000000E+00  0.00000000E+00
  0.00000000E+00  0.00000000E+00  0.00000000E+00
  0.00000000E+00  0.00000000E+00  0.00000000E+00
  0.00000000E+00  0.00000000E+00  0.00000000E+00
  0.00000000E+00  0.00000000E+00  0.00000000E+00
  0.00000000E+00  0.00000000E+00  0.00000000E+00
  0.00000000E+00  0.00000000E+00  0.00000000E+00
  0.00000000E+00  0.00000000E+00  0.00000000E+00
  0.00000000E+00  0.00000000E+00  0.00000000E+00
  0.00000000E+00  0.00000000E+00  0.00000000E+00
  0.00000000E+00  0.00000000E+00  0.00000000E+00
  0.00000000E+00  0.00000000E+00  0.00000000E+00
  0.00000000E+00  0.00000000E+00  0.00000000E+00
  0.00000000E+00  0.00000000E+00  0.00000000E+00
  0.00000000E+00  0.00000000E+00  0.00000000E+00
  0.00000000E+00  0.00000000E+00  0.00000000E+00
  0.00000000E+00  0.00000000E+00  0.00000000E+00
  0.00000000E+00  0.00000000E+00  0.00000000E+00
  0.00000000E+00  0.00000000E+00  0.00000000E+00
  0.00000000E+00  0.00000000E+00  0.00000000E+00
  0.00000000E+00  0.00000000E+00  0.00000000E+00
  0.00000000E+00  0.00000000E+00  0.00000000E+00
  0.00000000E+00  0.00000000E+00  0.00000000E+00
  0.00000000E+00  0.00000000E+00  0.00000000E+00
  0.00000000E+00  0.00000000E+00  0.00000000E+00
  0.00000000E+00  0.00000000E+00  0.00000000E+00
  0.00000000E+00  0.00000000E+00  0.00000000E+00
  0.00000000E+00  0.00000000E+00  0.00000000E+00
  0.00000000E+00  0.00000000E+00  0.00000000E+00
  0.00000000E+00  0.00000000E+00  0.00000000E+00
  0.00000000E+00  0.00000000E+00  0.00000000E+00
  0.00000000E+00  0.00000000E+00  0.00000000E+00
  0.00000000E+00  0.00000000E+00  0.00000000E+00
  0.00000000E+00  0.00000000E+00  0.00000000E+00
  0.00000000E+00  0.00000000E+00  0.00000000E+00
  0.00000000E+00  0.00000000E+00  0.00000000E+00
  0.00000000E+00  0.00000000E+00  0.00000000E+00
  0.00000000E+00  0.00000000E+00  0.00000000E+00
  0.00000000E+00  0.00000000E+00  0.00000000E+00
  0.00000000E+00  0.00000000E+00  0.00000000E+00
  0.00000000E+00  0.00000000E+00  0.00000000E+00
  0.00000000E+00  0.00000000E+00  0.00000000E+00
  0.00000000E+00  0.00000000E+00  0.00000000E+00
  0.00000000E+00  0.00000000E+00  0.00000000E+00
  0.00000000E+00  0.00000000E+00  0.00000000E+00
  0.00000000E+00  0.00000000E+00  0.00000000E+00
  0.00000000E+00  0.00000000E+00  0.00000000E+00
  0.00000000E+00  0.00000000E+00  0.00000000E+00
  0.00000000E+00  0.00000000E+00  0.00000000E+00
  0.00000000E+00  0.00000000E+00  0.00000000E+00
  0.00000000E+00  0.00000000E+00  0.00000000E+00
  0.00000000E+00  0.00000000E+00  0.00000000E+00
  0.00000000E+00  0.00000000E+00  0.00000000E+00
