Li10 Mg3 Bi16 S16 O16                   
   1.00000000000000     
    11.1954340561826466    0.0697548745948950    0.0096436930294318
     0.0573151959147611    9.5373132140113821    0.0435524639802037
     0.0098806286981243    0.0527035510201662   11.1833065518369157
   Li   Mg   Bi   S    O 
    10     3    16    16    16
Direct
  0.3956407379200348  0.0125949392716453  0.2150501464781046
  0.0654503718794991 -0.0365298861457056  0.4821658908717297
  0.6287014242356989  0.0007899638951734  0.1811129061253111
  0.8690050673393570 -0.0024992865854513  0.2047583447268778
  0.1261132933694631 -0.0038382730100914  0.9240114677130821
  0.3706863269110134  0.0040282184455395  0.9423682699357188
  0.2597451926687855  0.0253920266077471  0.6683721417132442
  0.6245823233844436  0.0004711878714382  0.9462861922385876
  0.8821185429036118 -0.0049819262204726  0.9559772722065976
  0.8949065439624908  0.0165218070957151  0.7097778296530193
  0.1266393375379272 -0.0047885666640589  0.1803563961552935
  0.6304602078752441  0.0019058978566586  0.4326734000787366
  0.6227477759432998  0.0050540279595712  0.6956526615631911
 -0.0014124539131310  0.3061006116421482  0.0620823769681917
  0.2454001501581391  0.6874108430728999  0.0564194399112139
  0.2477633945071800  0.3004736529418208  0.3105548253488989
  0.5008388858219707  0.6986647370366404  0.3114212840489284
  0.4975299512729028  0.3000787749538109  0.0612026409496138
  0.7475641633065715  0.7003548792808677  0.0610072309646815
  0.7484614602798824  0.3049981754924965  0.3097734579352147
  0.0010266821610625  0.6902941904914743  0.3079960798324294
 -0.0034955637127631  0.2978523510861946  0.5640538121495853
  0.2414475724677506  0.6954170993830193  0.5568834745498585
  0.2474014996837973  0.3045429768165997  0.8141501193383264
  0.4998090586625123  0.7007458154028303  0.8126928277727296
  0.4989157713164789  0.3178990282051216  0.5598885598287537
  0.7445572147442800  0.6863374116931771  0.5614491163250239
  0.7478192497565848  0.3113746487384753  0.8094490040587609
 -0.0017175949405951  0.7049481785041539  0.8118364957122051
  0.2492518115407108  0.3555609695080670  0.0606727361967089
 -0.0055868017139977  0.6428490674977629  0.0576408739040360
  0.5007310052439818  0.3495125224839902  0.3092303130107877
  0.2448359366582331  0.6526012509839797  0.3058945566622188
  0.7488122457829031  0.3439371748106840  0.0612438670378923
  0.4965176684554309  0.6574178002747589  0.0575161397022293
  0.0005562085619282  0.3364329258602138  0.3100341372533104
  0.7445388722186229  0.6523351502098941  0.3071551630528130
  0.2532725646034985  0.2780450345712480  0.5640606234054462
 -0.0083736436894653  0.6734237562624519  0.5563193795162495
  0.5004659908986705  0.3472577133888754  0.8108702536999488
  0.2459118604381565  0.6639074594354003  0.8081290865499009
  0.7499517305279337  0.3589833825808077  0.5610723700879626
  0.4937313662200704  0.6590495240227848  0.5572618020206955
 -0.0013279131517111  0.3452079486610138  0.8125662446846280
  0.7453041792086705  0.6504144968783925  0.8086179138992434
  0.4990320168674867  0.0805423824052437  0.0657016822516475
  0.2320093296389947  0.9079010602863433  0.0542137665573308
  0.2508519826021356  0.0922578456939112  0.2681829284966050
  0.0100312692237131  0.9083872897004138  0.2935114479761610
  0.0024710369939982  0.0836720157358578  0.0699388438105384
  0.7514582693346344  0.9203111706170092  0.0642092689500135
  0.7340514038893343  0.0864757658907763  0.3038648506913145
  0.5241523913108617  0.9164068370662413  0.3070131458600975
  0.5425479282374998  0.1051055908844628  0.5613847751675242
  0.2172536408579068  0.9040038162930976  0.5515975904398742
  0.2535600097337557  0.0889515246912519  0.8317972659047960
 -0.0151001204922936  0.9176997856784511  0.8359852128724438
  0.9763437550330348  0.0888988954508639  0.5761815285265504
  0.7148331344277699  0.9039286732256447  0.5689439968097484
  0.7440756660344885  0.0885688125900037  0.8066486369244980
  0.5197386169995512  0.9185688512406350  0.8225859329229049
 
  0.00000000E+00  0.00000000E+00  0.00000000E+00
  0.00000000E+00  0.00000000E+00  0.00000000E+00
  0.00000000E+00  0.00000000E+00  0.00000000E+00
  0.00000000E+00  0.00000000E+00  0.00000000E+00
  0.00000000E+00  0.00000000E+00  0.00000000E+00
  0.00000000E+00  0.00000000E+00  0.00000000E+00
  0.00000000E+00  0.00000000E+00  0.00000000E+00
  0.00000000E+00  0.00000000E+00  0.00000000E+00
  0.00000000E+00  0.00000000E+00  0.00000000E+00
  0.00000000E+00  0.00000000E+00  0.00000000E+00
  0.00000000E+00  0.00000000E+00  0.00000000E+00
  0.00000000E+00  0.00000000E+00  0.00000000E+00
  0.00000000E+00  0.00000000E+00  0.00000000E+00
  0.00000000E+00  0.00000000E+00  0.00000000E+00
  0.00000000E+00  0.00000000E+00  0.00000000E+00
  0.00000000E+00  0.00000000E+00  0.00000000E+00
  0.00000000E+00  0.00000000E+00  0.00000000E+00
  0.00000000E+00  0.00000000E+00  0.00000000E+00
  0.00000000E+00  0.00000000E+00  0.00000000E+00
  0.00000000E+00  0.00000000E+00  0.00000000E+00
  0.00000000E+00  0.00000000E+00  0.00000000E+00
  0.00000000E+00  0.00000000E+00  0.00000000E+00
  0.00000000E+00  0.00000000E+00  0.00000000E+00
  0.00000000E+00  0.00000000E+00  0.00000000E+00
  0.00000000E+00  0.00000000E+00  0.00000000E+00
  0.00000000E+00  0.00000000E+00  0.00000000E+00
  0.00000000E+00  0.00000000E+00  0.00000000E+00
  0.00000000E+00  0.00000000E+00  0.00000000E+00
  0.00000000E+00  0.00000000E+00  0.00000000E+00
  0.00000000E+00  0.00000000E+00  0.00000000E+00
  0.00000000E+00  0.00000000E+00  0.00000000E+00
  0.00000000E+00  0.00000000E+00  0.00000000E+00
  0.00000000E+00  0.00000000E+00  0.00000000E+00
  0.00000000E+00  0.00000000E+00  0.00000000E+00
  0.00000000E+00  0.00000000E+00  0.00000000E+00
  0.00000000E+00  0.00000000E+00  0.00000000E+00
  0.00000000E+00  0.00000000E+00  0.00000000E+00
  0.00000000E+00  0.00000000E+00  0.00000000E+00
  0.00000000E+00  0.00000000E+00  0.00000000E+00
  0.00000000E+00  0.00000000E+00  0.00000000E+00
  0.00000000E+00  0.00000000E+00  0.00000000E+00
  0.00000000E+00  0.00000000E+00  0.00000000E+00
  0.00000000E+00  0.00000000E+00  0.00000000E+00
  0.00000000E+00  0.00000000E+00  0.00000000E+00
  0.00000000E+00  0.00000000E+00  0.00000000E+00
  0.00000000E+00  0.00000000E+00  0.00000000E+00
  0.00000000E+00  0.00000000E+00  0.00000000E+00
  0.00000000E+00  0.00000000E+00  0.00000000E+00
  0.00000000E+00  0.00000000E+00  0.00000000E+00
  0.00000000E+00  0.00000000E+00  0.00000000E+00
  0.00000000E+00  0.00000000E+00  0.00000000E+00
  0.00000000E+00  0.00000000E+00  0.00000000E+00
  0.00000000E+00  0.00000000E+00  0.00000000E+00
  0.00000000E+00  0.00000000E+00  0.00000000E+00
  0.00000000E+00  0.00000000E+00  0.00000000E+00
  0.00000000E+00  0.00000000E+00  0.00000000E+00
  0.00000000E+00  0.00000000E+00  0.00000000E+00
  0.00000000E+00  0.00000000E+00  0.00000000E+00
  0.00000000E+00  0.00000000E+00  0.00000000E+00
  0.00000000E+00  0.00000000E+00  0.00000000E+00
  0.00000000E+00  0.00000000E+00  0.00000000E+00
