Li12 Mg2 Bi16 S16 O16                   
   1.00000000000000     
    11.1490981088419545    0.0000432106313915    0.0020536637234725
     0.0002866444516924    9.4502115955972368   -0.0118696100116427
     0.0020342394043660   -0.0148477917331536   11.1495695873006770
   Li   Mg   Bi   S    O 
    12     2    16    16    16
Direct
  0.3573795122504316  0.0060748480174779  0.4403612030441779
  0.1048532704160441  0.0162315159571522  0.2120090425956827
  0.6288180328477029  0.0065688448807973  0.4549493126413491
  0.8884235550113327 -0.0046466541225417  0.4411007781370058
  0.6286853515816146  0.9996236138984678  0.1891422197910645
  0.8652506036009214 -0.0010618282679048  0.1877519357413788
  0.1258798224708631  0.9975817228882473  0.9396271330616602
  0.3736200334162917 -0.0013381352968286  0.9383726395623267
  0.1141299655739907  0.9919009190319510  0.6765372930513627
  0.6359196492766903  0.9887171286611199  0.9119984788026794
  0.8826036039633566  0.0000235561198310  0.9381990571742065
  0.8551580927058985  0.0056427626133425  0.6822903534042840
  0.3745844528722526 -0.0027068981712811  0.1839456077862632
  0.3876852564190360  0.0020905274976560  0.6914447643212402
 -0.0008506876209196  0.3005371235415891  0.0623254220097824
  0.2507347588107056  0.6911382854078251  0.0610655601066406
  0.2491621126295512  0.3079444659818084  0.3115775730561256
  0.5002429570060389  0.6924920935786845  0.3111361842664345
  0.5007704975484812  0.3068448270515961  0.0626349322413212
  0.7521845192023380  0.6997674381302258  0.0624203266950017
  0.7496357838353201  0.3008691201161643  0.3121768986276065
  0.9964422927103970  0.7038003554905208  0.3117680023380244
 -0.0026003434595486  0.2948645633840706  0.5646618289982605
  0.2508167567783420  0.6960871715437748  0.5638188178741178
  0.2520750613094643  0.3071871102339242  0.8116014749562432
  0.5019651977968344  0.6922504578677657  0.8122023177787928
  0.4993945311844963  0.3071916969107320  0.5607800602557051
  0.7530882511881130  0.7031522940931018  0.5603066494538285
  0.7549994156418683  0.2965255240900871  0.8133333601440947
  0.0020560260727619  0.6982104202994155  0.8132438620734890
  0.2515125512196247  0.3487648473285714  0.0625313363641864
  0.0012139448343956  0.6528379614519895  0.0634319772964586
  0.4989719468792120  0.3512364724082512  0.3101345694764537
  0.2516249225166206  0.6656090665560791  0.3101952557655009
  0.7502857147501281  0.3460997289362205  0.0612912825654380
  0.5001720707435713  0.6495184622340832  0.0627749727207114
  0.0009927675558735  0.3309687977909123  0.3106897635075044
  0.7501231806261769  0.6486597580476554  0.3119310286471338
  0.2512107713716014  0.3440848935604556  0.5626841938956105
  0.0017291553506181  0.6612059184830725  0.5633199729247991
  0.5007974796870417  0.3359374644465031  0.8102921729519580
  0.2527989552686543  0.6455202731577625  0.8113872111087295
  0.7497983803848961  0.3402779273141127  0.5614451091533245
  0.5001532361248415  0.6604093073379962  0.5631357861326426
  0.0018988714935155  0.3490215813480784  0.8121082173646160
  0.7508785727984127  0.6691008252021952  0.8135508103947321
  0.4916627139989256  0.0836138440877657  0.0696834246769790
  0.2614579467625513  0.9154505718996385  0.0601460235539052
  0.2612654859578195  0.0872659856012352  0.2967036033465176
 -0.0199618654772535  0.9191345606048872  0.3006524866534642
  0.0031946135505991  0.0798804809727107  0.0632719723669113
  0.7482280909085002  0.9201872942402424  0.0628865320701783
  0.7409284660122202  0.0818343038296800  0.3094283969236789
  0.4928502797598043  0.9157063528772993  0.3005319547148600
  0.4813933467239473  0.0863011165162319  0.5534925302320451
  0.2655529447165416  0.9148432615270410  0.5832500629294497
  0.2638100894867192  0.0835596052689050  0.8104308043352720
  0.0122002945416926  0.9170755318820161  0.8198117445238199
  0.9853362939827729  0.0800193362534746  0.5797587672753630
  0.7606075291254011  0.9185469205783028  0.5463179195745379
  0.7672840868278056  0.0805755530094782  0.8248339514789969
  0.4869188284760957  0.9135871238183527  0.8214530750840978
 
  0.00000000E+00  0.00000000E+00  0.00000000E+00
  0.00000000E+00  0.00000000E+00  0.00000000E+00
  0.00000000E+00  0.00000000E+00  0.00000000E+00
  0.00000000E+00  0.00000000E+00  0.00000000E+00
  0.00000000E+00  0.00000000E+00  0.00000000E+00
  0.00000000E+00  0.00000000E+00  0.00000000E+00
  0.00000000E+00  0.00000000E+00  0.00000000E+00
  0.00000000E+00  0.00000000E+00  0.00000000E+00
  0.00000000E+00  0.00000000E+00  0.00000000E+00
  0.00000000E+00  0.00000000E+00  0.00000000E+00
  0.00000000E+00  0.00000000E+00  0.00000000E+00
  0.00000000E+00  0.00000000E+00  0.00000000E+00
  0.00000000E+00  0.00000000E+00  0.00000000E+00
  0.00000000E+00  0.00000000E+00  0.00000000E+00
  0.00000000E+00  0.00000000E+00  0.00000000E+00
  0.00000000E+00  0.00000000E+00  0.00000000E+00
  0.00000000E+00  0.00000000E+00  0.00000000E+00
  0.00000000E+00  0.00000000E+00  0.00000000E+00
  0.00000000E+00  0.00000000E+00  0.00000000E+00
  0.00000000E+00  0.00000000E+00  0.00000000E+00
  0.00000000E+00  0.00000000E+00  0.00000000E+00
  0.00000000E+00  0.00000000E+00  0.00000000E+00
  0.00000000E+00  0.00000000E+00  0.00000000E+00
  0.00000000E+00  0.00000000E+00  0.00000000E+00
  0.00000000E+00  0.00000000E+00  0.00000000E+00
  0.00000000E+00  0.00000000E+00  0.00000000E+00
  0.00000000E+00  0.00000000E+00  0.00000000E+00
  0.00000000E+00  0.00000000E+00  0.00000000E+00
  0.00000000E+00  0.00000000E+00  0.00000000E+00
  0.00000000E+00  0.00000000E+00  0.00000000E+00
  0.00000000E+00  0.00000000E+00  0.00000000E+00
  0.00000000E+00  0.00000000E+00  0.00000000E+00
  0.00000000E+00  0.00000000E+00  0.00000000E+00
  0.00000000E+00  0.00000000E+00  0.00000000E+00
  0.00000000E+00  0.00000000E+00  0.00000000E+00
  0.00000000E+00  0.00000000E+00  0.00000000E+00
  0.00000000E+00  0.00000000E+00  0.00000000E+00
  0.00000000E+00  0.00000000E+00  0.00000000E+00
  0.00000000E+00  0.00000000E+00  0.00000000E+00
  0.00000000E+00  0.00000000E+00  0.00000000E+00
  0.00000000E+00  0.00000000E+00  0.00000000E+00
  0.00000000E+00  0.00000000E+00  0.00000000E+00
  0.00000000E+00  0.00000000E+00  0.00000000E+00
  0.00000000E+00  0.00000000E+00  0.00000000E+00
  0.00000000E+00  0.00000000E+00  0.00000000E+00
  0.00000000E+00  0.00000000E+00  0.00000000E+00
  0.00000000E+00  0.00000000E+00  0.00000000E+00
  0.00000000E+00  0.00000000E+00  0.00000000E+00
  0.00000000E+00  0.00000000E+00  0.00000000E+00
  0.00000000E+00  0.00000000E+00  0.00000000E+00
  0.00000000E+00  0.00000000E+00  0.00000000E+00
  0.00000000E+00  0.00000000E+00  0.00000000E+00
  0.00000000E+00  0.00000000E+00  0.00000000E+00
  0.00000000E+00  0.00000000E+00  0.00000000E+00
  0.00000000E+00  0.00000000E+00  0.00000000E+00
  0.00000000E+00  0.00000000E+00  0.00000000E+00
  0.00000000E+00  0.00000000E+00  0.00000000E+00
  0.00000000E+00  0.00000000E+00  0.00000000E+00
  0.00000000E+00  0.00000000E+00  0.00000000E+00
  0.00000000E+00  0.00000000E+00  0.00000000E+00
  0.00000000E+00  0.00000000E+00  0.00000000E+00
  0.00000000E+00  0.00000000E+00  0.00000000E+00
