Li8 Mg4 Bi16 S16 O16                    
   1.00000000000000     
    11.2127750075910093   -0.0697033978193209   -0.0995242485853480
    -0.0585606774037846    9.5551634406690891    0.0444232620721401
    -0.0992987201015762    0.0536150418461049   11.1726187117352609
   Li   Mg   Bi   S    O 
     8     4    16    16    16
Direct
  0.3481143314499516  0.0250602493603702  0.4547829408221955
  0.1242052719902408 -0.0000987157538192  0.1916866564604742
  0.3745553250790676  0.0042171225162561  0.1905150931635912
  0.9869888459812612  0.0192978984201430  0.4251360923536028
  0.3802931767665724  0.0020432562929958  0.9499283742206734
  0.3485133349923749 -0.0120083685120167  0.7149511314828721
  0.6337948852401027  0.9871971174000391  0.8979377656697508
  0.8667742462993832  0.0042133975210958  0.9601100898767295
  0.6259139427385219  0.0003452054371549  0.4504857347966477
  0.6287102884201560  0.0030850588942564  0.1799191270328604
  0.1218179173351449 -0.0045877555542460  0.9239340373200932
  0.8666460022462663 -0.0034793739792331  0.6920539421466494
  0.0020594564030760  0.3005760747054494  0.0626929360108377
  0.2451365312096369  0.6919086043047561  0.0619288570750107
  0.2513924034935190  0.3000001182129594  0.3100841984008632
  0.5024176393895667  0.6860395013659731  0.3123693245997921
  0.4968851561738800  0.3076208797708211  0.0637304538974175
  0.7440134210411857  0.6985755540634406  0.0609908396377738
  0.7487900015403798  0.3130430798596180  0.3132072529749895
  0.0049864809890726  0.6973947264688398  0.3095364739988218
 -0.0016991226704293  0.3082400843039654  0.5660662667832616
  0.2503641159536842  0.7078023033996822  0.5613002072649363
  0.2527743233520050  0.3037998102207671  0.8113977504536729
  0.4921963851190658  0.7032222944730139  0.8130453859380339
  0.4987092570393404  0.3098603372110416  0.5576173959738656
  0.7479532791068602  0.6925735183718341  0.5620393721770941
  0.7508834306968961  0.3032900195726804  0.8128922627027335
 -0.0050534073234190  0.6872774546483955  0.8113216561730296
  0.2462711393767144  0.3554229668383606  0.0612233807965927
  0.0015856305639819  0.6476952258437094  0.0599803944518096
  0.4994824191946931  0.3655318053432343  0.3101492803519518
  0.2543736253473683  0.6588576553169354  0.3086783408927966
  0.7453660925187500  0.3343000949092255  0.0627885970648588
  0.5026117807518690  0.6463453870041896  0.0584989371213802
 -0.0021292930189125  0.2815117150142473  0.3143850431818779
  0.7525258861276223  0.6602718511992482  0.3083048363489356
  0.2477987814047146  0.3190527692612758  0.5619346838318919
 -0.0023496017839512  0.6755857267448961  0.5625300616853549
  0.4979252577867372  0.3309511164344733  0.8135632314100257
  0.2494530558350560  0.6504677518160195  0.8102244587228072
  0.7467350011767169  0.3500028818378644  0.5629781004492846
  0.5018230679551005  0.6573052027324712  0.5581185460332992
 -0.0028968817780625  0.3537395682198157  0.8137946627844014
  0.7498358309876330  0.6532289949719694  0.8104467651104379
  0.4930903708526596  0.0863365488021280  0.0807328633559632
  0.2392679300937901  0.9132509590187896  0.0515187589968654
  0.2694953810153077  0.0872681022722356  0.2974510998174169
  0.0197797149865811  0.9061481204156786  0.2991725740560895
  0.0162656354760601  0.0862675488977381  0.0390058928272983
  0.7237168581208689  0.9167488246146255  0.0489494534386755
  0.7093633665951752  0.1000236809365805  0.3161613379155744
  0.5261952686619630  0.9080819119386825  0.3067164887920424
  0.4964120482916138  0.0975136399090100  0.5290798230686131
  0.2779270346852509  0.9145194109427057  0.5745125904864927
  0.2546961438193762  0.0867878338709059  0.8371250459299721
 -0.0171701557256976  0.9098180044748339  0.8248715020182914
  0.9690236200255500  0.0967200275831552  0.5784509881393755
  0.7455560822175042  0.9126740470845844  0.5680821511616860
  0.7693962682453773  0.0853510719880046  0.8202576982483563
  0.4812157201392305  0.9161001007661450  0.8312507921013403
 
  0.00000000E+00  0.00000000E+00  0.00000000E+00
  0.00000000E+00  0.00000000E+00  0.00000000E+00
  0.00000000E+00  0.00000000E+00  0.00000000E+00
  0.00000000E+00  0.00000000E+00  0.00000000E+00
  0.00000000E+00  0.00000000E+00  0.00000000E+00
  0.00000000E+00  0.00000000E+00  0.00000000E+00
  0.00000000E+00  0.00000000E+00  0.00000000E+00
  0.00000000E+00  0.00000000E+00  0.00000000E+00
  0.00000000E+00  0.00000000E+00  0.00000000E+00
  0.00000000E+00  0.00000000E+00  0.00000000E+00
  0.00000000E+00  0.00000000E+00  0.00000000E+00
  0.00000000E+00  0.00000000E+00  0.00000000E+00
  0.00000000E+00  0.00000000E+00  0.00000000E+00
  0.00000000E+00  0.00000000E+00  0.00000000E+00
  0.00000000E+00  0.00000000E+00  0.00000000E+00
  0.00000000E+00  0.00000000E+00  0.00000000E+00
  0.00000000E+00  0.00000000E+00  0.00000000E+00
  0.00000000E+00  0.00000000E+00  0.00000000E+00
  0.00000000E+00  0.00000000E+00  0.00000000E+00
  0.00000000E+00  0.00000000E+00  0.00000000E+00
  0.00000000E+00  0.00000000E+00  0.00000000E+00
  0.00000000E+00  0.00000000E+00  0.00000000E+00
  0.00000000E+00  0.00000000E+00  0.00000000E+00
  0.00000000E+00  0.00000000E+00  0.00000000E+00
  0.00000000E+00  0.00000000E+00  0.00000000E+00
  0.00000000E+00  0.00000000E+00  0.00000000E+00
  0.00000000E+00  0.00000000E+00  0.00000000E+00
  0.00000000E+00  0.00000000E+00  0.00000000E+00
  0.00000000E+00  0.00000000E+00  0.00000000E+00
  0.00000000E+00  0.00000000E+00  0.00000000E+00
  0.00000000E+00  0.00000000E+00  0.00000000E+00
  0.00000000E+00  0.00000000E+00  0.00000000E+00
  0.00000000E+00  0.00000000E+00  0.00000000E+00
  0.00000000E+00  0.00000000E+00  0.00000000E+00
  0.00000000E+00  0.00000000E+00  0.00000000E+00
  0.00000000E+00  0.00000000E+00  0.00000000E+00
  0.00000000E+00  0.00000000E+00  0.00000000E+00
  0.00000000E+00  0.00000000E+00  0.00000000E+00
  0.00000000E+00  0.00000000E+00  0.00000000E+00
  0.00000000E+00  0.00000000E+00  0.00000000E+00
  0.00000000E+00  0.00000000E+00  0.00000000E+00
  0.00000000E+00  0.00000000E+00  0.00000000E+00
  0.00000000E+00  0.00000000E+00  0.00000000E+00
  0.00000000E+00  0.00000000E+00  0.00000000E+00
  0.00000000E+00  0.00000000E+00  0.00000000E+00
  0.00000000E+00  0.00000000E+00  0.00000000E+00
  0.00000000E+00  0.00000000E+00  0.00000000E+00
  0.00000000E+00  0.00000000E+00  0.00000000E+00
  0.00000000E+00  0.00000000E+00  0.00000000E+00
  0.00000000E+00  0.00000000E+00  0.00000000E+00
  0.00000000E+00  0.00000000E+00  0.00000000E+00
  0.00000000E+00  0.00000000E+00  0.00000000E+00
  0.00000000E+00  0.00000000E+00  0.00000000E+00
  0.00000000E+00  0.00000000E+00  0.00000000E+00
  0.00000000E+00  0.00000000E+00  0.00000000E+00
  0.00000000E+00  0.00000000E+00  0.00000000E+00
  0.00000000E+00  0.00000000E+00  0.00000000E+00
  0.00000000E+00  0.00000000E+00  0.00000000E+00
  0.00000000E+00  0.00000000E+00  0.00000000E+00
  0.00000000E+00  0.00000000E+00  0.00000000E+00
