Li Mg Bi  S  O 
 1.0000000000000000
    11.1784999999999997    0.0000000000000000    0.0000000000000000
     0.0000000000000000    9.5746000000000002    0.0000000000000000
     0.0000000000000000    0.0000000000000000   11.1823999999999995
 Li  Mg  Bi  S   O  
  12   2  16  16  16
Direct
  0.3515676285585465  0.0026286394885900  0.4409521276925141
  0.1247337634469758  1.0003414478884511  0.1879648878213277
  0.3725828781189680  0.0011121370324724  0.1868731851010790
  0.6238543779021085  1.0000794492703575  0.4417516764349549
  0.9007629445133254 -0.0039406030662712  0.4436763263360654
  0.8781380038389094  0.0009377571025977  0.1883078055731067
  0.3471126452103976 -0.0011800513420719  0.9298614160931203
  0.3808228914991051  0.0009792150864181  0.6860058720541722
  0.6255406014694531  1.0002190078768611  0.9333458419465261
  0.8997234358924520  0.0047996651239113  0.9293895446542255
  0.6248171554300638  1.0001455713258089  0.6872313585621933
  0.8697258797731863 -0.0008434840919760  0.6861120588083731
  0.6251526369843007  1.0002215014758402  0.1870705775936241
  0.1258222861349262  0.9998467420788150  0.6858529164487996
 -0.0020002647016929  0.2950946338784634  0.0635592632452264
  0.2500144023643173  0.7076474436837406  0.0641778785669669
  0.2503051096909702  0.2944569936941747  0.3093480175854884
  0.5001794226514571  0.6950866189657048  0.3121044829888919
  0.5000662246545917  0.3064578140286466  0.0618645887923881
  0.7504354902857983  0.6944133637509740  0.0621122113578177
  0.7490373604636287  0.3051098282185255  0.3124774513868611
  0.9993963258171570  0.7058265976650835  0.3107898435154442
 -0.0001166199853821  0.3014073432452393  0.5622054335794912
  0.2517703875205927  0.6967731381920804  0.5625352439781108
  0.2495784515645988  0.3041996301685172  0.8107287464406945
  0.4998552728544961  0.7062717718497229  0.8121091374603778
  0.4987628180162255  0.2958180228268383  0.5623493718646890
  0.7498008069202100  0.7047873017638456  0.5627682889994369
  0.7492556452615271  0.2948238696447334  0.8111429434049557
  0.9994136777956732  0.6983923938283341  0.8108376232200807
  0.2530034086799542  0.3358876532451254  0.0607483356719552
 -0.0014965553383046  0.6634111553253415  0.0628174256224594
  0.5011856268676453  0.3484899985243986  0.3135447572003199
  0.2513842593070361  0.6648900510625944  0.3137021975928363
  0.7473697176541675  0.3488231325010981  0.0627296306706867
  0.4993149132554557  0.6523926051511081  0.0622426078598149
  0.9989424197749386  0.3372852288102191  0.3114286148205118
  0.7476844443357341  0.6529052862016111  0.3120710340468152
  0.2483027403531615  0.3432046015901597  0.5621584267146584
 -0.0008778664233939  0.6579833771638215  0.5620185719431682
  0.5000433060708437  0.3435834925044041  0.8106721215423822
  0.2478111922559377  0.6589161192294619  0.8121202624704422
  0.7512017629080557  0.3422963234599387  0.5623601163536052
  0.5001824978515349  0.6577359454479748  0.5635529775594572
  0.9994315936345022  0.3401230050595712  0.8141784351956016
  0.7497014311843855  0.6567171192191128  0.8126845192204947
  0.5110936360159064  0.0858203014163719  0.0707308250918746
  0.2643415207215640  0.9202713521101599  0.0710909780213987
  0.2646474632720007  0.0817622931698742  0.3026934908287389
 -0.0141647343170551  0.9186546064889867  0.3038269271515857
  0.9836431750999212  0.0822432617954209  0.0707682641218570
  0.7382583901338218  0.9151323398685793  0.0693722778625460
  0.7396143981722255  0.0844239669434949  0.3041671095854943
  0.5110360309066611  0.9158889158724670  0.3046499063724336
  0.4999000000098834  0.0778069121575320  0.5605661762698775
  0.2562237957396052  0.9143046148283278  0.5809599201501929
  0.2544094009531152  0.0868585589128625  0.7911873118731587
 -0.0048840330469978  0.9156542238285016  0.7911597314946820
  0.9958864170841584  0.0841415934268224  0.5805838587678225
  0.7495806858221508  0.9227932133758787  0.5615064559981130
  0.7496362295757508  0.0767608616116538  0.8128035685347030
  0.5000651493006758  0.9240552434947421  0.8128435690284712
