Li Mg Bi  S  O 
 1.0000000000000000
    11.1784999999999997    0.0000000000000000    0.0000000000000000
     0.0000000000000000    9.5746000000000002    0.0000000000000000
     0.0000000000000000    0.0000000000000000   11.1823999999999995
 Li  Mg  Bi  S   O  
  10   3  16  16  16
Direct
  0.3329996257069920  0.0213819222113322  0.4774830377376404
  0.1243014397791202  1.0023720228620749  0.2091999241741785
  0.3768259257296946  0.0003526517672724  0.1839467507950948
  0.6188878858157522  1.0013015489253614  0.4274887799555495
  0.6199649945351200  0.9953138880241167  0.1785078625230218
  0.8765074158567142 -0.0019902478653409  0.1866017036019971
  0.1224002174001812  0.9982560715994407  0.9471044927341002
  0.3669876756557588 -0.0018288600584077  0.9127936448525973
  0.6248697915979727  1.0022634305786624  0.9405653061234687
  0.8790885564103472  0.0037238744537953  0.8957723225200500
  0.8802126469509481 -0.0020272745928907  0.4522176512096006
  0.1155177053089132  1.0013649910883882  0.6875216638318350
  0.6291585361548343  0.9985237450792814  0.6845816143873891
  0.0005912979089456  0.2935066140107443  0.0659583280249219
  0.2508924717196767  0.7058440310832061  0.0628962347420461
  0.2545281187305105  0.2938469036589795  0.3106824070566400
  0.5000338485530494  0.7041397922612489  0.3094668092788607
  0.4990897701252610  0.2958099778080931  0.0629750184239692
  0.7507841211254928  0.7082053583927096  0.0647973801995928
  0.7528366359115601  0.3036711637588320  0.3152203934345453
  0.9993184318941611  0.6972266934169982  0.3137675059825935
  0.0009792307417527  0.3060996421322458  0.5641713013329068
  0.2494847762587269  0.7004748741322456  0.5664060136537843
  0.2444957505013765  0.3027308957547586  0.8159534535024022
  0.5038533869878311  0.6975651175046714  0.8144705196335404
  0.5026609107333079  0.3030092115326763  0.5631071795344262
  0.7470417667189063  0.6898490757964411  0.5615365476534752
  0.7457588019913829  0.3054720433913706  0.8167355943080687
  1.0020633695849679  0.6928670764043274  0.8162515680671290
  0.2500860150824491  0.3474654636011739  0.0640820064295353
 -0.0013226152025953  0.6563595948137749  0.0661974088421242
  0.5025528962571219  0.3443195929642199  0.3136329780557547
  0.2502452016258562  0.6681555433619508  0.3140684787612625
  0.7518527201576061  0.3413251031513101  0.0641328796353535
  0.5006965500375229  0.6533215393786058  0.0614188596944666
  1.0018159861970664  0.3406937626430022  0.3171050471677814
  0.7492290122640968  0.6469468421777532  0.3172826057357874
  0.2524060319288281  0.3122027167182954  0.5619797095870913
 -0.0004609072918066  0.6634028577222174  0.5644613186338939
  0.5023065969064331  0.3433456138788507  0.8124228944469595
  0.2472648727569207  0.6485658167398541  0.8143061539283408
  0.7512318198950227  0.3505079461307595  0.5643118786187142
  0.4989100962622420  0.6609432244760346  0.5661801216100233
  1.0014467553295292  0.3463213730436971  0.8127064475852576
  0.7511924614533707  0.6598449512626268  0.8127371006145662
  0.5009561671009534  0.0791692494639474  0.0589812410925908
  0.2541432365242147  0.9219260640731124  0.0567387406361737
  0.2638196331699469  0.0803870659578813  0.3028841575665498
 -0.0218842876747108  0.9143290367262864  0.3145528067657225
  1.0034616066066928  0.0774307040589935  0.0689226326719501
  0.7470994635961037  0.9246431486311719  0.0667255416342606
  0.7629845917739657  0.0835101584253918  0.3284183488109755
  0.5143232331780900  0.9180309927785586  0.2988122295288867
  0.5231588023428478  0.0865514139473227  0.5592721569596124
  0.2356780417984791  0.9124625833783780  0.5801863502981783
  0.2233856244650230  0.0860080930512283  0.8200288313274593
  0.0146919314210421  0.9109322494177082  0.8188010202560139
  0.9937802777723265  0.0872938475134221  0.5702766198816558
  0.7392997090685787  0.9132816890728029  0.5515705110934791
  0.7348030386818243  0.0867559397394700  0.8133289792164166
  0.5218508710391905  0.9146716027873918  0.8153206401422944
