Li Mg Bi  S  O 
 1.0000000000000000
    11.1784999999999997    0.0000000000000000    0.0000000000000000
     0.0000000000000000    9.5746000000000002    0.0000000000000000
     0.0000000000000000    0.0000000000000000   11.1823999999999995
 Li  Mg  Bi  S   O  
   8   4  16  16  16
Direct
  0.3679727092989116 -0.0000219378447334  0.4363802368208641
  0.1254405880275920  0.9972094798485220  0.1984681026280445
  0.6284245054787441  0.9999064026111150  0.4353159243496799
  0.8867525645290939  0.0008394266428505  0.4347662603857478
  0.8567985654890824 -0.0033153247524261  0.1923128373242590
  0.1473897660780537  1.0069743115441860  0.9447941064275368
  0.1294638744224373  1.0045686860397058  0.6718855576341942
  0.8846019444493664 -0.0012133909921876  0.9438555209345859
  0.3904530576432165 -0.0024124552858804  0.1756429767012917
  0.3879392212051029  0.0023061225934154  0.7003704683231409
  0.6202685711270625  1.0029412042686834  0.9363898291002685
  0.8576955936220886  0.0012205615232335  0.6932319896906568
  0.0016770805857148  0.2958146662903460  0.0634431928868067
  0.2478785143965538  0.6976467506462776  0.0654844414773329
  0.2508958442347641  0.3014535972538072  0.3109455381714298
  0.4983556599680740  0.6968188608598612  0.3136368813992860
  0.5008222551361534  0.3056271963746017  0.0647850538382326
  0.7511058141145169  0.7029479071546612  0.0611391326445636
  0.7519968202397854  0.2939203203562774  0.3160316696232395
  0.9971758805547966  0.7082241179199613  0.3103299042712679
 -0.0038708711315394  0.3025253191772073  0.5664777021620405
  0.2526560160259491  0.6973807176772846  0.5653781083283435
  0.2486292382127875  0.3021956291992178  0.8107930267554305
  0.4989297758065970  0.6946820107304633  0.8128222892372169
  0.4956645547723071  0.3033963314442609  0.5601075644554508
  0.7529261711260933  0.6957336095056115  0.5600366882208508
  0.7491584945897768  0.3108159782426946  0.8165275768722358
  0.9975946644819746  0.6971471178827137  0.8116448825793011
  0.2512730874901645  0.3454893963165793  0.0614673252112089
 -0.0001936625582180  0.6554552666747170  0.0626005242471539
  0.5009839488854280  0.3469589600817364  0.3113358681787789
  0.2508041663995016  0.6539824317549369  0.3137628265529528
  0.7490919209260497  0.3471907755511154  0.0605676975032419
  0.5011350194661212  0.6721649949694044  0.0640905214704815
  1.0000526282560107  0.3354804807976950  0.3130349571386755
  0.7487169884458913  0.6592546556387139  0.3138116911190684
  0.2502015314398555  0.3454893250119334  0.5650682784171142
 -0.0008122514383407  0.6572477015677558  0.5655612993637884
  0.4998359306437693  0.3261033321351219  0.8138767970530322
  0.2514168125808274  0.6588163351151429  0.8159336434235196
  0.7489390936668278  0.3409663894543069  0.5674991500988732
  0.5006563024248939  0.6534598018049396  0.5659970396992785
  0.9997896265197034  0.3523927962098122  0.8133136783007276
  0.7477537205908206  0.6520027138118197  0.8124175243811506
  0.5056322025590554  0.0870667192623864  0.0589794112413298
  0.2503849786222923  0.9154012840094240  0.0808571678994551
  0.2727815234850129  0.0877856751441936  0.2905427829042116
 -0.0136784685886391  0.9207368436359562  0.2961992620111912
  1.0083039518383277  0.0798086223160918  0.0560289291267295
  0.7542933947973598  0.9198996425948911  0.0411980593860243
  0.7596626052073385  0.0812173969138370  0.3297273188872142
  0.4813393071856521  0.9133146960646581  0.3175169511511093
  0.4790015420707945  0.0868848060223820  0.5587359431968240
  0.2704976993703779  0.9122488625306776  0.5845338907113351
  0.2441012891383043  0.0837070165922006  0.7952122267279408
 -0.0179927548403758  0.9162877243438201  0.8062566014688541
  0.9817422730693366  0.0865536683592417  0.5851892912174098
  0.7676904559164912  0.9125106090319162  0.5580198279644258
  0.7571502027968289  0.0874222568843133  0.8266158073537572
  0.5066947142280944  0.9139033299487130  0.8150453521937630
