Li2 Mg7 Bi16 S16 O16                    
   1.00000000000000     
    11.2171975999527067   -0.0105166658701868    0.0271574063530519
    -0.0070494625458192    9.6429015313524147    0.0384207098300748
     0.0268766245925802    0.0483350933633899   11.2775357135586987
   Li   Mg   Bi   S    O 
     2     7    16    16    16
Direct
  0.0716570611708039  0.0242798020478991  0.2188790055740730
  0.3429997837021271  0.0119008360649459  0.1449701773049390
  0.5980684350724260  0.0000894379858348  0.4490599036295423
  0.8654749608002006  0.0056441018223195  0.4468867668846955
  0.6352174228961314  0.0086960909968966  0.1944479187222666
  0.1427936344339461 -0.0008368415969614  0.9301706242587974
  0.1059786062423097 -0.0012588288690143  0.6649907381504511
  0.3718277463210447  0.0018289082435371  0.6897830962946163
  0.6468227382902101 -0.0245255751772259  0.7043876829575234
  0.0077735788065078  0.3005737657098967  0.0581128836766620
  0.2543073755328938  0.6923567348325574  0.0587689624120639
  0.2474487318432654  0.2776635568415588  0.3024392310842267
  0.5013267315175569  0.6855264620534920  0.3080984522584987
  0.5031808410999008  0.3021399058539125  0.0731740279763882
  0.7530655037099433  0.7081184021765923  0.0648840090416253
  0.7478603960271207  0.3191281661122314  0.3138080242345297
 -0.0018878885032029  0.7085197272577629  0.3126129312944572
 -0.0012604244298812  0.3102115815168585  0.5589866475156200
  0.2494718935650647  0.6948065513791516  0.5582501042001670
  0.2485672598630618  0.3174637498399293  0.8081875952092972
  0.4996667158957901  0.6836203043541961  0.8120913075500075
  0.5016772085852257  0.3140153783537981  0.5705487664707725
  0.7481806454682246  0.6816500229124363  0.5606382266111389
  0.7509396329678648  0.2990651872540130  0.8169150775075474
  0.0030927004063246  0.6934627750817279  0.8159631448124479
  0.2559925769814116  0.3597600708862138  0.0671757951304199
  0.0061898957850869  0.6626847033220282  0.0596377936522516
  0.5038967008134053  0.3539662892736897  0.3182835504228802
  0.2544153602855424  0.6877866141757648  0.3108801315340503
  0.7529062909740341  0.2904039170430189  0.0749919538423899
  0.5069691312154653  0.6540671212663267  0.0630763482956798
  0.0027117103885478  0.3311289352588072  0.3153016156413254
  0.7559877161352361  0.6332428642324475  0.3105099525587379
  0.2548971148922739  0.3390012136117177  0.5678557697766072
  0.0046572987609153  0.6635344620946048  0.5602732700409421
  0.5018130650562529  0.3390903116152574  0.8120175487520117
  0.2532397520023098  0.6320057093410575  0.8074462142931622
  0.7545921010399840  0.3632899988154170  0.5699069137634692
  0.5048271639928538  0.6373268508008835  0.5618639239208745
  0.0039986795142951  0.3505662650366620  0.8123844321710484
  0.7493312424029274  0.7181283065948921  0.8014549644126900
  0.4963897645780907  0.0961137276257162  0.1152531749892957
  0.2582482673038908  0.9024731026668407  0.0300807811166798
  0.2330934687806707  0.0764974314439124  0.2646113749684545
 -0.0309562071131358  0.9169174442360055  0.3277784698192448
  0.0483539924371361  0.0954424114998170  0.0525453213590480
  0.7455952829925440  0.9090058740539473  0.0979632280097508
  0.7247559025237893  0.0958632343662761  0.3482927767670311
  0.5382308612239862  0.8981214416700053  0.3148733553936826
  0.5127121807200599  0.0856896003347205  0.5869074919589258
  0.2485281027065021  0.9060536966568055  0.5956015257772735
  0.2326135170840937  0.0922480799295427  0.7845093001396163
  0.0473736208026369  0.9014909414868284  0.8080976462047250
  0.9858939643410174  0.0919448618881238  0.5604398615321116
  0.7281013368483108  0.9097587076680886  0.5464008098634087
  0.7481044571410346  0.0970963285620589  0.7881418815788233
  0.4961143961039624  0.8947092794941605  0.7703775166810672
 
  0.00000000E+00  0.00000000E+00  0.00000000E+00
  0.00000000E+00  0.00000000E+00  0.00000000E+00
  0.00000000E+00  0.00000000E+00  0.00000000E+00
  0.00000000E+00  0.00000000E+00  0.00000000E+00
  0.00000000E+00  0.00000000E+00  0.00000000E+00
  0.00000000E+00  0.00000000E+00  0.00000000E+00
  0.00000000E+00  0.00000000E+00  0.00000000E+00
  0.00000000E+00  0.00000000E+00  0.00000000E+00
  0.00000000E+00  0.00000000E+00  0.00000000E+00
  0.00000000E+00  0.00000000E+00  0.00000000E+00
  0.00000000E+00  0.00000000E+00  0.00000000E+00
  0.00000000E+00  0.00000000E+00  0.00000000E+00
  0.00000000E+00  0.00000000E+00  0.00000000E+00
  0.00000000E+00  0.00000000E+00  0.00000000E+00
  0.00000000E+00  0.00000000E+00  0.00000000E+00
  0.00000000E+00  0.00000000E+00  0.00000000E+00
  0.00000000E+00  0.00000000E+00  0.00000000E+00
  0.00000000E+00  0.00000000E+00  0.00000000E+00
  0.00000000E+00  0.00000000E+00  0.00000000E+00
  0.00000000E+00  0.00000000E+00  0.00000000E+00
  0.00000000E+00  0.00000000E+00  0.00000000E+00
  0.00000000E+00  0.00000000E+00  0.00000000E+00
  0.00000000E+00  0.00000000E+00  0.00000000E+00
  0.00000000E+00  0.00000000E+00  0.00000000E+00
  0.00000000E+00  0.00000000E+00  0.00000000E+00
  0.00000000E+00  0.00000000E+00  0.00000000E+00
  0.00000000E+00  0.00000000E+00  0.00000000E+00
  0.00000000E+00  0.00000000E+00  0.00000000E+00
  0.00000000E+00  0.00000000E+00  0.00000000E+00
  0.00000000E+00  0.00000000E+00  0.00000000E+00
  0.00000000E+00  0.00000000E+00  0.00000000E+00
  0.00000000E+00  0.00000000E+00  0.00000000E+00
  0.00000000E+00  0.00000000E+00  0.00000000E+00
  0.00000000E+00  0.00000000E+00  0.00000000E+00
  0.00000000E+00  0.00000000E+00  0.00000000E+00
  0.00000000E+00  0.00000000E+00  0.00000000E+00
  0.00000000E+00  0.00000000E+00  0.00000000E+00
  0.00000000E+00  0.00000000E+00  0.00000000E+00
  0.00000000E+00  0.00000000E+00  0.00000000E+00
  0.00000000E+00  0.00000000E+00  0.00000000E+00
  0.00000000E+00  0.00000000E+00  0.00000000E+00
  0.00000000E+00  0.00000000E+00  0.00000000E+00
  0.00000000E+00  0.00000000E+00  0.00000000E+00
  0.00000000E+00  0.00000000E+00  0.00000000E+00
  0.00000000E+00  0.00000000E+00  0.00000000E+00
  0.00000000E+00  0.00000000E+00  0.00000000E+00
  0.00000000E+00  0.00000000E+00  0.00000000E+00
  0.00000000E+00  0.00000000E+00  0.00000000E+00
  0.00000000E+00  0.00000000E+00  0.00000000E+00
  0.00000000E+00  0.00000000E+00  0.00000000E+00
  0.00000000E+00  0.00000000E+00  0.00000000E+00
  0.00000000E+00  0.00000000E+00  0.00000000E+00
  0.00000000E+00  0.00000000E+00  0.00000000E+00
  0.00000000E+00  0.00000000E+00  0.00000000E+00
  0.00000000E+00  0.00000000E+00  0.00000000E+00
  0.00000000E+00  0.00000000E+00  0.00000000E+00
  0.00000000E+00  0.00000000E+00  0.00000000E+00
