Li Mg Bi  S  O 
 1.0000000000000000
    11.1784999999999997    0.0000000000000000    0.0000000000000000
     0.0000000000000000    9.5746000000000002    0.0000000000000000
     0.0000000000000000    0.0000000000000000   11.1823999999999995
 Li  Mg  Bi  S   O  
  10   3  16  16  16
Direct
  0.3566014521162270  0.0032847229981703  0.4457235672122007
  0.1180861870324492  1.0040750924119173  0.2009811986327418
  0.8875486430111442  0.0008791604217451  0.4372246036415220
  0.8595666291918549 -0.0016824266299571  0.1902638532641877
  0.1230313966288141  1.0037702711680911  0.9333704625166543
  0.3672076491432271  0.0001850348154908  0.9331152472329575
  0.1231437908103546  0.9996036799106321  0.6770530304404614
  0.3890594800504175 -0.0005969729588330  0.6872378839063047
  0.8815470126872994  0.0013412719300389  0.9363513573412212
  0.8591677658300334  0.0034780182309374  0.6840253004285868
  0.3926914566675320 -0.0018152540605525  0.1852911271864858
  0.6230250973627234  1.0004820466769093  0.4347397471386326
  0.6253623757571669  1.0039044011984433  0.9379482142984775
  0.0010603467959037  0.2956050701821099  0.0622501632522951
  0.2507985716362753  0.6965609900829006  0.0635553339860492
  0.2508795822610425  0.3005093650815474  0.3110292467569806
  0.4994540885960574  0.6906581557927103  0.3152825578829884
  0.5011800156721382  0.3094837785088515  0.0601698441239162
  0.7518960226423348  0.7019523877954409  0.0591632720721581
  0.7524813699034117  0.3043373456314094  0.3142295878900662
  0.9981323515388797  0.7090543960853681  0.3112353034244278
 -0.0012613705091956  0.2914630975880372  0.5636459219958760
  0.2496198789743147  0.7088591633536312  0.5660157179241642
  0.2486684556727967  0.2969295740640537  0.8110176217578045
  0.4985165053498113  0.6998335529765302  0.8132872207342324
  0.5005145407056881  0.3032931837341953  0.5604068767673389
  0.7504599219463379  0.7010260107950617  0.5597461891344568
  0.7514339802784644  0.3039201357366771  0.8124173155887545
  1.0010599435183742  0.7051528387198905  0.8118563119674828
  0.2514171923558391  0.3490344618238045  0.0635775356542786
  0.0013021630694973  0.6567085288351739  0.0628261490238541
  0.5022914470058888  0.3455692899380385  0.3090421968129854
  0.2522706546125030  0.6616940635484141  0.3139516281800003
  0.7508963258540403  0.3422272228999853  0.0619545055307446
  0.4987961717382250  0.6567100839072880  0.0644414037231293
  1.0012126189063628  0.3351132725195602  0.3124936437010961
  0.7475189777309508  0.6566385883679665  0.3123124974948154
  0.2537846320512320  0.3352462291229631  0.5616551562537723
 -0.0008840788598536  0.6637128724721610  0.5636014680153447
  0.5011974676828831  0.3374423636734363  0.8152734934100834
  0.2505873027141960  0.6548042307291299  0.8135303387672289
  0.7490207842863177  0.3452926064762484  0.5641794841338478
  0.5021943080445274  0.6587713317481543  0.5646747066267919
  1.0016686108904949  0.3466923436726009  0.8126535397469106
  0.7493917143573087  0.6610762880637813  0.8138843490289992
  0.4931145468363166  0.0848771708896222  0.0506438224870042
  0.2661406224587873  0.9169812782627343  0.0696056245522880
  0.2704750864050223  0.0847199574849030  0.2927322344850302
 -0.0160906989726169  0.9215253100265958  0.2968331634022199
  1.0060341522776413  0.0786978422968768  0.0595167493811349
  0.7541909939530225  0.9195253704754773  0.0455922505564572
  0.7526791726716269  0.0882520049160738  0.3314242659382773
  0.4919942626066245  0.9146062115795401  0.3231226318417916
  0.4946022207026884  0.0865892438365473  0.5400753350962403
  0.2649406357047603  0.9214339137730009  0.5812496641765407
  0.2480096116839353  0.0796332658769411  0.8176394302348005
  0.0014619801909535  0.9217889269045256  0.8148898525481613
  0.9849104511937582  0.0790875243874571  0.5780555250478725
  0.7523754904267026  0.9174960276120447  0.5424668779949210
  0.7554919702113095  0.0871483905736366  0.8310022224392741
  0.4956506102469742  0.9169316835328629  0.8341056128810195
