Li Mg Bi  S  O 
 1.0000000000000000
    11.1784999999999997    0.0000000000000000    0.0000000000000000
     0.0000000000000000    9.5746000000000002    0.0000000000000000
     0.0000000000000000    0.0000000000000000   11.1823999999999995
 Li  Mg  Bi  S   O  
   4   6  16  16  16
Direct
  0.8848732577016437 -0.0146225631141651  0.2185120677683237
  0.6735089241345101 -0.0481857188567990  0.1968286418898083
  0.8848568534627140 -0.0146237792798545  0.7185005780078805
  0.6734921901945671 -0.0481885463312225  0.6968314193123937
  0.1487564336888565  0.9551255854193543  0.0314664953248065
  0.4470916260460794 -0.0899060385633784  0.1351460835515692
  0.7033661351196249  0.9583450101852621  0.4447171350893800
  0.1487582158491899  0.9551280661291085  0.5314685202913291
  0.4470916237978724 -0.0899060516267274  0.6351461188750509
  0.7033729195114625  0.9582970661932255  0.9447229656724142
 -0.0097446381129073  0.2362075243013596  0.0752300681214934
  0.2741977234851392  0.6459835438592649  0.0412121122226929
  0.2933854830807716  0.3428699817659296  0.2265106235631128
  0.5388215712703297  0.6551708454511519  0.3081207561118295
  0.5300563771225318  0.2238358014196463  0.0241942783638113
  0.8001591512564873  0.6545264645991145  0.0698548438947926
  0.8185034538257355  0.3232782931569643  0.3335253524626387
  1.0713444737026916  0.6940081421499704  0.3220329242888109
 -0.0097446278976180  0.2362075399980094  0.5752300851357710
  0.2741975109432155  0.6459834789427666  0.5412120255360184
  0.2933569594365869  0.3428744621888159  0.7265128710320219
  0.5388215655687124  0.6551708428944445  0.8081207952946281
  0.5300571423520968  0.2238732302965437  0.5242281944677235
  0.8001390818263885  0.6545593249629532  0.5698404678059650
  0.8185035156882565  0.3232782296584216  0.8335251530201989
  1.0713444740512807  0.6940081461250417  0.8220329258360142
  0.2372600610199239  0.2023422471481368  0.0378034645807395
  0.0493098860729848  0.7015788463464542  0.0678360488975377
  0.5217374690922881  0.3272846346208711  0.3063931394592180
  0.2820997803886357  0.6004159259262383  0.3017632468251317
  0.7659883647141790  0.3099925626036915  0.0707722456132888
  0.5090938181538567  0.6825594475604634  0.0653028087340131
  1.0447073421761359  0.3453500999740866  0.3131327052945291
  0.7634087658420030  0.6229913890936787  0.3073230721786588
  0.2372600603879055  0.2023422462781053  0.5378034640478468
  0.0493049456376120  0.7015644450771519  0.5678460412803120
  0.5217156172097281  0.3272888107660154  0.8063720231293011
  0.2820995191130515  0.6004168456244563  0.8017607650656626
  0.7659991685295056  0.3100435924303463  0.5707703347113497
  0.5090938181552499  0.6825594475608402  0.5653028087346350
  1.0447072319955835  0.3453496499517787  0.8131325494864973
  0.7634086932923760  0.6229915559049252  0.8073221390059052
  0.5778786403705366  0.0199134097827344  0.0665988635984286
  0.3076425546515025  0.8871010185830034  0.0396119612961434
  0.3554290214744497  0.0649141132646383  0.2494080668426930
  0.1119167562541484  0.9226275337891150  0.3652187299391826
  1.0120763640914407  0.0208814546481338  0.1279511292759213
  0.7871221934779203  0.8714998074387076  0.0864420803815571
  0.7905012944352791  0.0919415337063861  0.3315561407429695
  0.5977698563605256  0.8779252656546036  0.3274800893037773
  0.5778682074481098  0.0199343894376757  0.5665994327527013
  0.3076424748155673  0.8871017719077726  0.5396100086022197
  0.3554303373228700  0.0649183213324238  0.7494082974209070
  0.1119303555091595  0.9226424382643373  0.8652119392490443
  1.0120810647545502  0.0208705650028016  0.6279599019033862
  0.7871103171176747  0.8715286783357649  0.5864315585827879
  0.7904837004927810  0.0919305858269947  0.8315502449659108
  0.5977565875049343  0.8779143515146657  0.8274796300932046
