Li Mg Bi  S  O 
 1.0000000000000000
    11.1784999999999997    0.0000000000000000    0.0000000000000000
     0.0000000000000000    9.5746000000000002    0.0000000000000000
     0.0000000000000000    0.0000000000000000   11.1823999999999995
 Li  Mg  Bi  S   O  
  12   2  16  16  16
Direct
  0.1288718881139609  0.9964569570699311  0.2026170505138961
  0.3732407509642306  0.0008354266734977  0.1835554088405345
  0.6273617261993831  1.0002041717645944  0.4367579800644499
  0.8909640793160092  0.0004299751591906  0.4380984052944755
  0.6314166714536954  1.0062308217851710  0.1682055827392673
  0.8726756910583249 -0.0001601658303379  0.1921954229201766
  0.1273617261993643  1.0002041717646677  0.9367579800644700
  0.3909640793160597  0.0004299751592325  0.9380984052944407
  0.1314166714536609  1.0062308217852247  0.6682055827392744
  0.3726756910583198 -0.0001601658302942  0.6921954229201905
  0.6288718881139134  0.9964569570699559  0.7026170505138519
  0.8732407509642458  0.0008354266735006  0.6835554088405271
  0.3680404955273973  0.0002096079089526  0.4373831601359045
  0.8680404955274604  0.0002096079088456  0.9373831601358902
 -0.0016768940803435  0.3056811885486463  0.0607940522971108
  0.2493957950683146  0.7052957856307153  0.0634077919756066
  0.2486742864211642  0.3014978813505771  0.3106793882778220
  0.4998919994827916  0.6944772642056708  0.3152669155486442
  0.4958818724196722  0.2937326100981218  0.0626355773282528
  0.7484256611706015  0.6992405088036711  0.0633065030351603
  0.7481884812428421  0.2959567255443835  0.3114649185737919
  0.9966912414749399  0.7084245595728120  0.3124150667347820
 -0.0041181275803247  0.2937326100982014  0.5626355773282573
  0.2484256611706190  0.6992405088037300  0.5633065030351674
  0.2481884812428751  0.2959567255446841  0.8114649185738392
  0.4966912414749272  0.7084245595727381  0.8124150667347927
  0.4983231059196427  0.3056811885487466  0.5607940522971372
  0.7493957950683351  0.7052957856307069  0.5634077919755840
  0.7486742864211743  0.3014978813504819  0.8106793882778126
  0.9998919994827781  0.6944772642056821  0.8152669155486143
  0.2491439294568206  0.3457742468400168  0.0620245385442279
 -0.0007845516152774  0.6499120993605411  0.0625253208114126
  0.4987859505763266  0.3514196928325387  0.3126766962583333
  0.2477332982036156  0.6636823738251606  0.3157718277108686
  0.7493911208885378  0.3355265224769892  0.0604512339695964
  0.4980289063837535  0.6670746821324850  0.0655786538987825
  0.9990706327907299  0.3321285829925661  0.3108288674045925
  0.7501849469130379  0.6557465194989219  0.3130295055349917
  0.2493911208885613  0.3355265224770150  0.5604512339695963
 -0.0019710936162156  0.6670746821325155  0.5655786538987961
  0.4990706327907280  0.3321285829925981  0.8108288674046075
  0.2501849469130291  0.6557465194989107  0.8130295055350328
  0.7491439294568236  0.3457742468400297  0.5620245385441927
  0.4992154483847085  0.6499120993605108  0.5625253208114110
  0.9987859505763026  0.3514196928325639  0.8126766962583384
  0.7477332982036363  0.6636823738251759  0.8157718277108477
  0.4893207521299333  0.0799557552932413  0.0763874869786765
  0.2455716894411734  0.9227687044933269  0.0640827740070259
  0.2678370581714352  0.0836011776179456  0.3059794752729023
 -0.0104118250135815  0.9218598048987455  0.2987930861197246
  0.9912188000737199  0.0852902099182987  0.0496269113641417
  0.7675437310918477  0.9167469372053585  0.0682964445029108
  0.7442843345269142  0.0785641137183372  0.3091967748355347
  0.4909681637300530  0.9147165196582958  0.3260015207054996
  0.4912188000737867  0.0852902099183655  0.5496269113642011
  0.2675437310919446  0.9167469372054132  0.5682964445028472
  0.2442843345270208  0.0785641137182052  0.8091967748355642
 -0.0090318362699921  0.9147165196582032  0.8260015207053840
  0.9893207521298895  0.0799557552933605  0.5763874869786967
  0.7455716894412004  0.9227687044934051  0.5640827740069559
  0.7678370581713139  0.0836011776178339  0.8059794752728596
  0.4895881749864182  0.9218598048987834  0.7987930861197331
