Li14 Mg1 Bi16 S16 O16                   
   1.00000000000000     
    11.1182737782438981   -0.0163165909634335    0.0000199866232753
    -0.0135511421307694    9.4042812772754569    0.0000503341356039
     0.0000215105590169    0.0000736089724313   11.1193481318014715
   Li   Mg   Bi   S    O 
    14     1    16    16    16
Direct
  0.3614618477975513 -0.0011214213762054  0.4373445387997307
  0.1249943429174352 -0.0000032657111686  0.2023364091991501
  0.3778617371600186 -0.0009741252316850  0.1865116896595151
  0.6249949113123620  0.0000046152056542  0.4353689768410113
  0.8885415434604996  0.0011253692942218  0.4373631066905107
  0.6250022608727749 -0.0000055339805292  0.1901684214314517
  0.8721485608753187  0.0009752728915498  0.1865115165309626
  0.1250044577510202  0.0000010292132685  0.9432034973104807
  0.3742334842415690 -0.0013020217828081  0.9385853329899908
  0.3826756038980540 -0.0016539300610617  0.6876906130081843
  0.6249964023041563 -0.0000036204388053  0.9391430182027036
  0.8757636651381333  0.0012988046884200  0.9385814819251227
  0.6249922266293081  0.0000091709271381  0.6847382852239344
  0.8673120779611743  0.0016670547954849  0.6877006906337184
  0.1249879388499408  0.0000087306713643  0.6810806693143984
 -0.0003155395941725  0.3005067261200931  0.0627008356308792
  0.2503054611696078  0.6994847800814650  0.0626972520135261
  0.2514831685101164  0.2959393343751083  0.3102760006280764
  0.5004381474682097  0.6991204800823080  0.3119246205318178
  0.5000419605425062  0.2993862955834670  0.0633243020912990
  0.7499539959116578  0.7006064399402195  0.0633259117182761
  0.7495519658660372  0.3008767408303778  0.3119259796267819
 -0.0014917859159465  0.7040625946603684  0.3102807509797306
 -0.0017261050069327  0.3061707795526206  0.5624000049657856
  0.2517099805475912  0.6938582222162464  0.5623979927572497
  0.2495055976390738  0.3078028949520566  0.8124269453741884
  0.5004880272407995  0.7002363966865162  0.8127351928726622
  0.5003941698784004  0.2993055399210206  0.5616742777654481
  0.7495869653891110  0.7007091454369895  0.5616742704395209
  0.7494904623788076  0.2997661874939215  0.8127309468535621
  0.0004663823573313  0.6922092043986457  0.8124280552861574
  0.2496961872902779  0.3459968089049488  0.0619673150476536
  0.0003012063824389  0.6540005909867944  0.0619676795653115
  0.4997628403826572  0.3482105871882294  0.3127646666507467
  0.2504512452594925  0.6656917695731970  0.3121167215386205
  0.7495554080265630  0.3451901782741276  0.0618298169837180
  0.5004420779301845  0.6548060939532494  0.0618275377143560
  0.9995256631137297  0.3343026474515297  0.3121231011835576
  0.7502151429145886  0.6518003246346736  0.3127627195372449
  0.2486210305524735  0.3364108575499603  0.5637119716334829
  0.0013632530410682  0.6636268082617833  0.5637103847538758
  0.5000340534391960  0.3419891515214169  0.8125853262877472
  0.2498947658967774  0.6487710467619928  0.8118916920556724
  0.7492897357669298  0.3465132307534922  0.5633113679875575
  0.5006922448124610  0.6535028918601528  0.5633085471852218
  0.0000756892611384  0.3512475761379206  0.8119006024368235
  0.7499380411596870  0.6579985705649157  0.8125812523690158
  0.5006036755517825  0.0775268076179775  0.0618828199281592
 -0.0140224774003205  0.9207548580267321  0.2996073507806545
  0.2512212979542012  0.9208648005769344  0.0572044840709671
  0.2640166386076306  0.0792480549207453  0.2995995132032405
  0.9987761703207101  0.0791263503997430  0.0572118155889455
  0.5029600177877880  0.9202270167144626  0.3118876244075543
  0.7494030504333368  0.9224654542680867  0.0618782583368110
  0.7470309198447436  0.0797723357687401  0.3118852535786289
  0.5009892964051803  0.0776726406057270  0.5625326302248214
  0.0084774963999439  0.9181451090450268  0.8072566130225642
  0.2580784134819836  0.9151097386921195  0.5822982818364214
  0.2414854501503259  0.0818674852150017  0.8072611709480616
  0.9919034927619470  0.0849190197421679  0.5823028363875086
  0.4989459909278641  0.9226236484051266  0.8131678250835489
  0.7490021626450208  0.9223412453410298  0.5625351369559846
  0.7510259033466818  0.0773784088457282  0.8131660954197485
 
  0.00000000E+00  0.00000000E+00  0.00000000E+00
  0.00000000E+00  0.00000000E+00  0.00000000E+00
  0.00000000E+00  0.00000000E+00  0.00000000E+00
  0.00000000E+00  0.00000000E+00  0.00000000E+00
  0.00000000E+00  0.00000000E+00  0.00000000E+00
  0.00000000E+00  0.00000000E+00  0.00000000E+00
  0.00000000E+00  0.00000000E+00  0.00000000E+00
  0.00000000E+00  0.00000000E+00  0.00000000E+00
  0.00000000E+00  0.00000000E+00  0.00000000E+00
  0.00000000E+00  0.00000000E+00  0.00000000E+00
  0.00000000E+00  0.00000000E+00  0.00000000E+00
  0.00000000E+00  0.00000000E+00  0.00000000E+00
  0.00000000E+00  0.00000000E+00  0.00000000E+00
  0.00000000E+00  0.00000000E+00  0.00000000E+00
  0.00000000E+00  0.00000000E+00  0.00000000E+00
  0.00000000E+00  0.00000000E+00  0.00000000E+00
  0.00000000E+00  0.00000000E+00  0.00000000E+00
  0.00000000E+00  0.00000000E+00  0.00000000E+00
  0.00000000E+00  0.00000000E+00  0.00000000E+00
  0.00000000E+00  0.00000000E+00  0.00000000E+00
  0.00000000E+00  0.00000000E+00  0.00000000E+00
  0.00000000E+00  0.00000000E+00  0.00000000E+00
  0.00000000E+00  0.00000000E+00  0.00000000E+00
  0.00000000E+00  0.00000000E+00  0.00000000E+00
  0.00000000E+00  0.00000000E+00  0.00000000E+00
  0.00000000E+00  0.00000000E+00  0.00000000E+00
  0.00000000E+00  0.00000000E+00  0.00000000E+00
  0.00000000E+00  0.00000000E+00  0.00000000E+00
  0.00000000E+00  0.00000000E+00  0.00000000E+00
  0.00000000E+00  0.00000000E+00  0.00000000E+00
  0.00000000E+00  0.00000000E+00  0.00000000E+00
  0.00000000E+00  0.00000000E+00  0.00000000E+00
  0.00000000E+00  0.00000000E+00  0.00000000E+00
  0.00000000E+00  0.00000000E+00  0.00000000E+00
  0.00000000E+00  0.00000000E+00  0.00000000E+00
  0.00000000E+00  0.00000000E+00  0.00000000E+00
  0.00000000E+00  0.00000000E+00  0.00000000E+00
  0.00000000E+00  0.00000000E+00  0.00000000E+00
  0.00000000E+00  0.00000000E+00  0.00000000E+00
  0.00000000E+00  0.00000000E+00  0.00000000E+00
  0.00000000E+00  0.00000000E+00  0.00000000E+00
  0.00000000E+00  0.00000000E+00  0.00000000E+00
  0.00000000E+00  0.00000000E+00  0.00000000E+00
  0.00000000E+00  0.00000000E+00  0.00000000E+00
  0.00000000E+00  0.00000000E+00  0.00000000E+00
  0.00000000E+00  0.00000000E+00  0.00000000E+00
  0.00000000E+00  0.00000000E+00  0.00000000E+00
  0.00000000E+00  0.00000000E+00  0.00000000E+00
  0.00000000E+00  0.00000000E+00  0.00000000E+00
  0.00000000E+00  0.00000000E+00  0.00000000E+00
  0.00000000E+00  0.00000000E+00  0.00000000E+00
  0.00000000E+00  0.00000000E+00  0.00000000E+00
  0.00000000E+00  0.00000000E+00  0.00000000E+00
  0.00000000E+00  0.00000000E+00  0.00000000E+00
  0.00000000E+00  0.00000000E+00  0.00000000E+00
  0.00000000E+00  0.00000000E+00  0.00000000E+00
  0.00000000E+00  0.00000000E+00  0.00000000E+00
  0.00000000E+00  0.00000000E+00  0.00000000E+00
  0.00000000E+00  0.00000000E+00  0.00000000E+00
  0.00000000E+00  0.00000000E+00  0.00000000E+00
  0.00000000E+00  0.00000000E+00  0.00000000E+00
  0.00000000E+00  0.00000000E+00  0.00000000E+00
  0.00000000E+00  0.00000000E+00  0.00000000E+00
