Li Mg Bi  S  O 
 1.0000000000000000
    11.1784999999999997    0.0000000000000000    0.0000000000000000
     0.0000000000000000    9.5746000000000002    0.0000000000000000
     0.0000000000000000    0.0000000000000000   11.1823999999999995
 Li  Mg  Bi  S   O  
  12   2  16  16  16
Direct
  0.3635125382639910 -0.0000107298572614  0.4368732128066649
  0.1286160666209550  1.0039783078210174  0.1998476061101176
  0.3753000845395479  0.0008047962414674  0.1853107168851203
  0.6263029466698993  0.9985918269523996  0.4366243303362302
  0.8878016949786605 -0.0001314579228841  0.4429646140498450
  0.6170700901867023  0.9969528748879012  0.1872861975871706
  0.1112205627060180  0.9983522929362221  0.9445153572004040
  0.3747693491089014 -0.0011832771102080  0.9371562966094344
  0.3828589078880851 -0.0019054953757332  0.6884251550689179
  0.6372095400765071  0.9998939137253562  0.9363997650012476
  0.6252300249091733  1.0011978400859765  0.6853401140196571
  0.8702596833886055  0.0013161910391548  0.6993099547818318
  0.8714844997672357  0.0036972241588304  0.1768940876004029
  0.1287915473797658  1.0025661310414153  0.6770432212373746
  0.0007608149537408  0.3033661894616358  0.0637220591034020
  0.2506182439760424  0.7055128971761708  0.0622223826484613
  0.2518113104966767  0.2929837392217338  0.3104611519001825
  0.5000196790521046  0.7042934996813569  0.3128666937958768
  0.4980551716504132  0.2943319575161306  0.0618136784225248
  0.7478016804511501  0.6983725074527819  0.0631787611078037
  0.7502287732841249  0.3052809130205342  0.3129306581694665
  0.9980427572112393  0.7015029284704426  0.3121249157151716
 -0.0020349636229484  0.3013666380692163  0.5637665370266667
  0.2530229973700026  0.6994653492278270  0.5620892974780365
  0.2492864245993728  0.3042644413343994  0.8118148886424914
  0.5005359993310078  0.7048433748052724  0.8129025691857735
  0.5002403229642599  0.2935896357448455  0.5620072629390546
  0.7496625972773791  0.7052187606475760  0.5628613203338897
  0.7475427919069313  0.2942773657033591  0.8114616493899933
  1.0014219030501956  0.6999236849181781  0.8112336102386893
  0.2507873966748434  0.3441767519494825  0.0614608594744570
 -0.0015200171661120  0.6625420672651529  0.0629778281115877
  0.5012650417529412  0.3425192166319195  0.3130983165629594
  0.2504375822233291  0.6671997993853219  0.3127490274732809
  0.7503138798439787  0.3336262986982667  0.0657952717623489
  0.5000111221189905  0.6575362713216065  0.0626791325077093
  1.0001828251447871  0.3414813295931599  0.3125689415383728
  0.7507088418488547  0.6515893736621432  0.3138809540345244
  0.2485863383682925  0.3337885870198684  0.5630583270959540
  0.0009295824968888  0.6642804324752254  0.5630922951635501
  0.4995456310045892  0.3433419051623267  0.8126348143242624
  0.2492689566649286  0.6529779393782477  0.8119512691499062
  0.7512438572223746  0.3432067903767757  0.5619843384752370
  0.5000805301121037  0.6579258017510928  0.5629262323327616
  1.0014157047774139  0.3412226636546297  0.8134034469191921
  0.7500241374418385  0.6670177800258318  0.8127307294218208
  0.4985053184262236  0.0765863791659453  0.0617080605560059
  0.2493003495194043  0.9228495677611095  0.0579066363641158
  0.2645996149435101  0.0798716224212044  0.3005921816182447
 -0.0194821213139763  0.9173116055121482  0.2976658074670145
  1.0074497771257125  0.0859869520817414  0.0810025233957226
  0.7400844068310517  0.9158200666682595  0.0806679298372345
  0.7557463302727797  0.0840522134864007  0.3038327130480233
  0.5039069791687527  0.9218590019311914  0.3129130853348955
  0.5007501107246903  0.0760045029051207  0.5619868615883856
  0.2601038207054082  0.9169112350063477  0.5792266299322314
  0.2451325681415735  0.0833766761378292  0.8025906835114127
  0.0201258054050372  0.9158465415508281  0.7981754726172614
  0.9926718183814881  0.0838506985682281  0.5804800964552833
  0.7505583342193964  0.9226011814267712  0.5584842882946527
  0.7355089926819915  0.0813326612833923  0.8010936878993605
  0.4973607969465120  0.9222744689595834  0.8132339449852810
