Li Mg Bi  S  O 
 1.0000000000000000
    11.1784999999999997    0.0000000000000000    0.0000000000000000
     0.0000000000000000    9.5746000000000002    0.0000000000000000
     0.0000000000000000    0.0000000000000000   11.1823999999999995
 Li  Mg  Bi  S   O  
   6   5  16  16  16
Direct
  0.0041127451382109  0.9914239779383888  0.1860586414110571
  0.3632703366864235 -0.0028337095316502  0.1783329912778854
  0.1339320629111924  0.9973549336733964  0.9323238112974732
  0.3915915206925176 -0.0027798807132935  0.9424477034124781
 -0.1100481459769665  0.9943020045862744  0.6930176700177197
  0.3529635103853267 -0.0185299115960931  0.7037681365288309
  0.4127496218481445 -0.0021387121103910  0.4348292620136305
  0.8456037716382477 -0.0130489259506904  0.4330090204704999
  0.6288541062601284  0.9904604574027857  0.1885983423059777
  0.8549189387774618 -0.0025746202156526  0.9444551907716446
  0.6291551033337551  0.9957667120467341  0.6840251859139478
  0.0071931412842780  0.3008473128273250  0.0573169689007398
  0.2511725232893628  0.6997583977297637  0.0562380565182480
  0.2599194290784014  0.2985814092662287  0.3134951997987162
  0.4946310112934360  0.6785343038982091  0.3067089357497381
  0.5011990530395323  0.2943059068518103  0.0632433312457391
  0.7450901674307369  0.6858401458853999  0.0620174457462834
  0.7527589039974794  0.3001164858826210  0.3115813778781123
  0.9950437547723059  0.6834254289064082  0.3157749000470265
  0.0000833160403383  0.2866711584466404  0.5575996362898747
  0.2521233581557392  0.7015156391790206  0.5564685671815776
  0.2529180594403609  0.2881081934981624  0.8143240025533597
  0.4973013604749861  0.6914923284620622  0.8031048444483947
  0.5024757270490240  0.3086100053360735  0.5647482285034261
  0.7505372685897470  0.6762422367702390  0.5626563355083661
  0.7556688472715400  0.3037075095161187  0.8097919112117518
  0.9995119434292348  0.6936823068758281  0.8151880769003941
  0.2520749619647686  0.3396356273507999  0.0586928912925272
 -0.0035645861739370  0.6458795601972304  0.0616278151254017
  0.5126045548619786  0.3513179963923667  0.3028697628476376
  0.2473638640557428  0.6557486843684622  0.3109637855727033
  0.7633827200384429  0.3301590995028782  0.0648280711092615
  0.4974370544247909  0.6481820436253094  0.0591715357160807
  1.0174606541062370  0.2959851139438957  0.3115044061495318
  0.7442115357004476  0.6414783141624949  0.3119714895778967
  0.2597107070638516  0.3298051100794100  0.5649221784132523
 -0.0058567563516010  0.6419038902429489  0.5604402620722225
  0.5067733254461592  0.3315799539368900  0.8163140502976953
  0.2492603146629086  0.6568725711739631  0.8069723930391656
  0.7460250264124014  0.3479696792255700  0.5640372487892570
  0.5008749928605598  0.6331341298343953  0.5575939278898769
  1.0007346152805703  0.3404821514725269  0.8088685298619351
  0.7465916426016032  0.6447641172818023  0.8109298688123857
  0.5006452750596027  0.0774528702729914  0.0810815679792975
  0.2628644379534512  0.9129725063226860  0.0486935513397592
  0.3070481822944172  0.0935070028817821  0.3180281318595262
 -0.0425545562840072  0.8922632019597294  0.3187767979399068
  0.9923390344137070  0.0833638775194767  0.0386189513262846
  0.7465983223102222  0.9058572959524872  0.0665121781070249
  0.7363704872902108  0.0806772369287149  0.3126274551424619
  0.4998277858759411  0.9009352417710565  0.2969041107210684
  0.5132307508362911  0.0876156770799309  0.5669694485877852
  0.3074733204580346  0.9036989527532240  0.5517160558039185
  0.2645050861341668  0.0754741805798231  0.8297607247361317
 -0.0248707989922776  0.9086974698962325  0.8337113203465349
  0.9468922788474698  0.0839264911613959  0.5526005514226954
  0.7505524160391728  0.8994275242010050  0.5744768467884275
  0.7601230726674815  0.0792979526876331  0.7987922042167918
  0.5000035898942792  0.9077725375044938  0.7870651035999536
