Li Mg Bi  S  O 
 1.0000000000000000
    11.1784999999999997    0.0000000000000000    0.0000000000000000
     0.0000000000000000    9.5746000000000002    0.0000000000000000
     0.0000000000000000    0.0000000000000000   11.1823999999999995
 Li  Mg  Bi  S   O  
  10   3  16  16  16
Direct
  0.3349305833963533  0.0249105002313416  0.4838970296754390
  0.1075366116434272  1.0159034805575380  0.2152856122599223
  0.6237228116235661  0.9991986758392006  0.4289790777167535
  0.9050822542019812 -0.0098406268325321  0.4657086550030471
  0.6312043308616505  1.0005183780313287  0.1858566556693994
  0.8702048773967381  0.0009520837587883  0.1889319250891122
  0.1221520632439645  0.9980577985333949  0.9511663967128715
  0.3657392320183960 -0.0088673165707634  0.9058341688951737
  0.6211518572304292  1.0018589933368700  0.9418369046502936
  0.8729412423006380 -0.0025000574524745  0.9052079494796750
  0.3777102637284503  0.0002298762296743  0.1824080163904890
  0.1179572238810972  0.9984566548244456  0.6939139467391658
  0.6203856838634009  0.9998610894232329  0.6857013119199146
 -0.0023733267129882  0.2973798432194147  0.0655754090609743
  0.2507377644414456  0.6959748753132894  0.0611350262840201
  0.2501296302203541  0.3058723009666579  0.3113339724187576
  0.4992283593043425  0.6973466062786698  0.3085968939138417
  0.4995328710337547  0.3070118810020070  0.0626613150133155
  0.7513856383787935  0.7071638362991821  0.0619410764285443
  0.7484737924230452  0.2962889349723183  0.3117893581797959
  0.9947874376988718  0.7079886965384862  0.3129893360120944
 -0.0021491773769435  0.2986262642773873  0.5652678751274154
  0.2457529363355646  0.7006563361065122  0.5653837674739164
  0.2435075102524545  0.3015346475236707  0.8157121911155476
  0.5008623173316062  0.6947168751301956  0.8118616276887787
  0.4996382409326179  0.3040755929891487  0.5619120237774599
  0.7444272489979051  0.6969807122745084  0.5609706874158163
  0.7449040160535342  0.3022037092176406  0.8136240165035119
  0.9996792939491005  0.6919776204435412  0.8150718307258653
  0.2493491637899572  0.3498167040494746  0.0646097197765364
 -0.0000768547874849  0.6563391110193417  0.0632536926735472
  0.4976056621181650  0.3509331932590857  0.3130876282525633
  0.2503023414770820  0.6682535965001420  0.3110506476795265
  0.7486378443854985  0.3458794734608007  0.0619901480465231
  0.4990049027276896  0.6492174432634391  0.0604653132795686
  1.0003529999357317  0.3358480139161876  0.3133109464014836
  0.7478615760494141  0.6523768565049236  0.3135380267766986
  0.2507429425472673  0.3168560583862655  0.5614006907962140
 -0.0020426824224756  0.6679988960410704  0.5632230922161030
  0.4986128673341373  0.3402822856414575  0.8118925745802874
  0.2476877197637953  0.6474173846855535  0.8127474571011661
  0.7484347542018839  0.3431418802209946  0.5637498382106918
  0.4959537471769291  0.6582506272564115  0.5627458664678009
  1.0004280294152654  0.3462854815106277  0.8137391096281724
  0.7479367700156856  0.6556376156270963  0.8117496143147682
  0.4986061294982210  0.0863172479368602  0.0685803395478542
  0.2660287991263616  0.9162627580736405  0.0587278004846477
  0.2628260446791427  0.0887486826981888  0.2957972584632844
 -0.0183974840942940  0.9214612483198406  0.3073103553842211
  1.0033413669133948  0.0808258725436635  0.0689652996889827
  0.7475105990865317  0.9240831491736836  0.0599853209799668
  0.7423509222564082  0.0810704750304673  0.3061972764865123
  0.5037957239626591  0.9155098811169396  0.2904844743232611
  0.5131404062634192  0.0861857303820229  0.5566835459083004
  0.2374445947273895  0.9127486865890680  0.5828704076907780
  0.2255013906589481  0.0842781216246230  0.8242648222141579
  0.0150882805055111  0.9091504204653900  0.8247596934353169
  1.0004759482971410  0.0857371643224819  0.5818825111685164
  0.7260885477444622  0.9132078969310498  0.5586509784951544
  0.7282678192995780  0.0845224366525258  0.8156809773082736
  0.5152732363476579  0.9127912397502924  0.8178925751213877
