Li Mg Bi  S  O 
 1.0000000000000000
    11.1784999999999997    0.0000000000000000    0.0000000000000000
     0.0000000000000000    9.5746000000000002    0.0000000000000000
     0.0000000000000000    0.0000000000000000   11.1823999999999995
 Li  Mg  Bi  S   O  
  10   3  16  16  16
Direct
  0.3435180231585855 -0.0115759421868857  0.4125668347526829
  0.6226169851745926  1.0023103269977705  0.4396195385953196
  0.5937059259563641  0.9946196423128706  0.1755417528661588
  0.8646138502402466  0.0031222329692962  0.1857534960467682
  0.1254755190622460  0.9963313724937772  0.6871978255220941
  0.3780224393267223  0.0040953512310062  0.6840806506178745
  0.6267321889263084  1.0017233696452861  0.9320516540964653
  0.9042881709017357 -0.0028243776973172  0.9425495663353251
  0.6239237483983513  1.0046849017118009  0.6882298965713347
  0.8725968303439902  0.0015318959008401  0.6906112179443209
  0.1276118742821760  0.9925303609041444  0.1856305492435145
  0.8877488201420303 -0.0030590868585884  0.4355702509083582
  0.3632026893067362 -0.0033102390075559  0.9473981045275046
  0.0012011301024985  0.2980947081043997  0.0630942275915088
  0.2488022587081848  0.6895882631794185  0.0652390146232951
  0.2502905265776847  0.2967392988496597  0.3135017882755354
  0.5011980710401180  0.7086988941869740  0.3163060186421230
  0.5028676618526587  0.3018235904154971  0.0596041718477379
  0.7488328265202838  0.7072687799957585  0.0630709657286795
  0.7524626998138051  0.3054705896385836  0.3141070026453709
  1.0009992973393551  0.6892498319687294  0.3131315093635765
  0.0000212399160904  0.3019907359218538  0.5659850458230323
  0.2528772857263635  0.7073656791761157  0.5668968642497860
  0.2546613723541511  0.3027588669581270  0.8109208608966321
  0.4991161480078634  0.6940007320523812  0.8158175555781499
  0.5018772291203216  0.2970927770802842  0.5630165039128754
  0.7501563735172855  0.6949718898849800  0.5610387421497369
  0.7505805829881242  0.2954335044053581  0.8120369903753134
  0.9978005227990816  0.7064933882454467  0.8113290753289324
  0.2505325715618718  0.3363072029357173  0.0633773200081289
 -0.0014871063922991  0.6559640106898039  0.0649988761456072
  0.5041549341247925  0.3304347344808297  0.3111032642519034
  0.2499489720053936  0.6768229242809979  0.3142748083954163
  0.7529149444242060  0.3416034493928091  0.0619490898784866
  0.4992489599040842  0.6592021529045560  0.0644873360063990
  1.0003193635168219  0.3493314119061610  0.3139611937958469
  0.7498108328278065  0.6506610808354643  0.3143498542416102
  0.2535450728226716  0.3373190056560804  0.5622002953611631
  0.0012489115949854  0.6618422734624341  0.5609114625154341
  0.5013650502173004  0.3562628360512171  0.8149129026355084
  0.2484873019744188  0.6559478691274853  0.8168415652750030
  0.7526291166976569  0.3528673105379688  0.5628464489963435
  0.4997563825027240  0.6558160518857910  0.5648464866305940
  1.0021145811894996  0.3340788133201468  0.8130397970435677
  0.7501216780808762  0.6586817000525228  0.8132670804400852
  0.5018943466665320  0.0842152578024438  0.0396360083945448
  0.2455548687205028  0.9087383003878855  0.0635708770922954
  0.2357651078540392  0.0840338492292297  0.3026493483942329
 -0.0124039442585100  0.9117269931931983  0.2993133556904347
  0.9958830119981072  0.0807760059531245  0.0833034473703036
  0.7453793667974565  0.9244986475265243  0.0646962964568231
  0.7663421878215642  0.0859157846697686  0.3258216683325627
  0.5122059084252590  0.9221090682343970  0.3228144218570581
  0.5123497137461048  0.0815879032012063  0.5733969362275640
  0.2613191242609429  0.9208249827614345  0.5760534785103973
  0.2745563406812734  0.0868627726195804  0.8114304307246796
 -0.0111297746032353  0.9199852477909037  0.8004907757282822
  0.9806649114142109  0.0856643329028088  0.5678224242399851
  0.7601382501223086  0.9158957032658619  0.5504735044057218
  0.7432691817543169  0.0786574072468726  0.8053716052263069
  0.4907343346327844  0.9151047394633781  0.8247494261852626
