Li Mg Bi  S  O 
 1.0000000000000000
    11.1784999999999997    0.0000000000000000    0.0000000000000000
     0.0000000000000000    9.5746000000000002    0.0000000000000000
     0.0000000000000000    0.0000000000000000   11.1823999999999995
 Li  Mg  Bi  S   O  
   2   7  16  16  16
Direct
  0.3768769268446012 -0.0010703320779695  0.4404635662730378
  0.8747272884834957  0.0001109929925920  0.1874915067887711
  0.1310029567613990  0.9971641205955720  0.1812962829364853
  0.8747961812498686 -0.0005607216045531  0.4476402394679337
  0.6187137933614342  1.0024651427042242  0.1809134625302783
  0.3747992013739330 -0.0010842403553803  0.9346230669061765
  0.1228942711728103  1.0014549355277444  0.6909140053845566
  0.8753418890301825 -0.0006733736955571  0.9275273421901424
  0.6273072963582808  0.9965161309688453  0.6928479441656691
 -0.0010777042468285  0.3045871412308699  0.0632177609201650
  0.2517330492430200  0.6954365685580082  0.0646074545211480
  0.2492341300572554  0.2949759853350579  0.3144170988988350
  0.5006459650866987  0.7051932376745420  0.3131706422248613
  0.4966642156670147  0.3037597985801954  0.0637554658643153
  0.7498934633419236  0.6961396987577063  0.0638642301906071
  0.7472782962992551  0.3046401804793524  0.3137552841455185
  1.0004265847583400  0.6952728712188307  0.3145639307143153
  0.0015720198372487  0.3032100926650315  0.5628530811948989
  0.2504537859022333  0.7020573058233834  0.5642180001478753
  0.2505416063007594  0.3019258419307934  0.8122894365407923
  0.4985241004993401  0.6950208679664784  0.8128065664801282
  0.4996372595162284  0.2936326780786236  0.5658377059156010
  0.7471092163139769  0.6962934586565050  0.5634540539832935
  0.7481635200823421  0.3021739516447510  0.8129246706152410
  1.0013542470337624  0.6965976376216459  0.8132704536393824
  0.2482009600338806  0.3377167294604488  0.0617292956320898
 -0.0016955134001036  0.6549482427265748  0.0654977524122496
  0.5027244348451638  0.3284962962237117  0.3124022066384384
  0.2492195277846523  0.6708305404830477  0.3115917258996038
  0.7501781581322499  0.3437219486935020  0.0640924916932175
  0.5006926004338186  0.6633870207604403  0.0626721078383367
  0.9984309481131265  0.3457704142101566  0.3130501776770133
  0.7494184829729833  0.6545046756675367  0.3117970445235387
  0.2492596023213468  0.3339515499379901  0.5650897457812777
 -0.0020029921128015  0.6623785342969361  0.5618761686866298
  0.5012747547826224  0.3405419666167812  0.8150675478595042
  0.2471905392128161  0.6570183759671668  0.8156543360410378
  0.7521531710313023  0.3385480820011531  0.5623077673204583
  0.5023904081449087  0.6636993549943042  0.5651421205905909
  0.9986656116758780  0.3344536927347508  0.8144132760471865
  0.7516720381753117  0.6668798070206010  0.8161475133948507
  0.5000432140924153  0.0858146287261875  0.0565333721678393
  0.2489862207751401  0.9135898391467300  0.0566408785886564
  0.2384383059498067  0.0837287840955749  0.3021964543921447
 -0.0133391056541933  0.9163719179273466  0.3016226882092109
  0.9891277916236947  0.0813653282476701  0.0705956262108686
  0.7596149971782867  0.9190055410685566  0.0707234027931123
  0.7619334468805318  0.0829924473949718  0.3019811742595535
  0.5115896191165403  0.9169451193791472  0.3026335476588531
  0.5121221235087122  0.0821274744625042  0.5756886770188375
  0.2384708063531757  0.9131261518897628  0.5753358115831551
  0.2492312760097724  0.0843539509268059  0.8155119265963165
 -0.0001908303598813  0.9152058111686305  0.8122268910635789
  0.9985560205243914  0.0855573120535590  0.5641816407042717
  0.7519444616695368  0.9141673412412232  0.5648691449156078
  0.7506647413584786  0.0836434995986618  0.8127918918726047
  0.5006974170692187  0.9124716025357362  0.8155706823312225
