Li6 Mg5 Bi16 S16 O16                    
   1.00000000000000     
    11.2611097136234388    0.0438063748621084    0.0361180891881163
     0.0366968377503278    9.5573282896985727    0.0207302268587957
     0.0360811648299033    0.0254867751514325   11.2295300281283126
   Li   Mg   Bi   S    O 
     6     5    16    16    16
Direct
  0.1203132930598076  0.0170732736149213  0.2191654522286691
  0.9099730352747765 -0.0372301774771200  0.1257481021348673
  0.0854944518327069  0.0315792441326604  0.8883284762440520
  0.3394236003558625 -0.0330777337948703  0.9086047268223409
  0.0806481219411620 -0.0317491042812831  0.6305317100333775
  0.3290196101847288  0.0292462765982064  0.5693662966853149
  0.3871569139497811  0.0011969785518499  0.1774264978553744
  0.8696385074475518  0.0015570571332165  0.4288200240100152
  0.6450283934621610  0.0002447353561937  0.2117550342767238
  0.6357612020353655  0.0046012382492418  0.9464028191352060
  0.8489223397322306  0.0002147043887375  0.7000024847545705
  0.0137544345754412  0.2936627875664692  0.0663738766295470
  0.2568013617093615  0.6908159033561433  0.0666753687595774
  0.2579682203993938  0.3067767309288491  0.3132186676849307
  0.4974816716520011  0.6920114403430442  0.3231087966226080
  0.5093021515685807  0.3220888511103464  0.0736375749151506
  0.7509256334088413  0.6861087703970680  0.0681515442015020
  0.7548061437341341  0.3169163829312005  0.3209153766990301
  0.0011305604030835  0.7019944644087661  0.3137597496076870
  0.0000621612216302  0.3077444169663499  0.5665465455960803
  0.2488510669057808  0.6857988593985292  0.5667282148896675
  0.2526563716580719  0.2981636730314518  0.8172187451352940
  0.5012487784225150  0.7011078886170727  0.8213571719210007
  0.5025027217147963  0.2881233610959938  0.5740360872741270
  0.7455215030129827  0.6856960558047982  0.5670316753397624
  0.7505370920459907  0.3125053481206901  0.8204866886333936
  0.0033159940648941  0.7001183476131715  0.8085172196200209
  0.2529026214084437  0.3584502305091507  0.0672583862856073
 -0.0002029468870711  0.6898903226190493  0.0697544169315868
  0.5041234953421247  0.3519632359586272  0.3224220980933709
  0.2529614718563259  0.6623260665593873  0.3183042349773287
  0.7550777275141536  0.3486211907496571  0.0717560481326882
  0.5055433696616274  0.6318483290532683  0.0729386941245038
  0.0019680247483344  0.3391494068145451  0.3194564490632692
  0.7536225307123379  0.6571865066470329  0.3194167515315326
  0.2468041336958234  0.3015101246051174  0.5669788911861082
  0.0024302356411280  0.6327803948266251  0.5711712134324896
  0.5074434299248758  0.3403287588422387  0.8277074782852911
  0.2548362403978326  0.6763005998462136  0.8221942317072877
  0.7511811269146810  0.3469758567630974  0.5718211460435845
  0.5026018145489946  0.7152053381543195  0.5714964308923562
  0.0039336263438031  0.3373711709357982  0.8210201745415091
  0.7566166206170981  0.6700184099274668  0.8208707140708656
  0.5339640880601391  0.0937491208167109  0.0888175175272903
  0.2857496684856483  0.9043672485416949  0.0649141576435730
  0.2644456274990123  0.0977684133927776  0.2721712272665677
 -0.0208781562762619  0.9189508456475248  0.3029542650163035
  0.0305889638776231  0.0803623797755796  0.0634444533047161
  0.7388353239675144  0.9116245152503628  0.0774129424747510
  0.7573431482293699  0.0953363460295503  0.3168065848831428
  0.5066743358273673  0.9008324911547502  0.2741424983740429
  0.4873084616628247  0.0828939785936941  0.5772304801994829
  0.2150552293842865  0.8926774467244109  0.5653985784468841
  0.2351778482540988  0.0878759500026899  0.8268720329006760
 -0.0072442750131206  0.9161296956609556  0.7780635146030952
  0.9566316254288626  0.0909504448564005  0.5682180159188382
  0.7888509863908186  0.8959566201154896  0.5604541811465310
  0.7479550297985450  0.0920759740520670  0.8259741471780162
  0.5032832362091161  0.9054528124120241  0.8743731161068501
 
  0.00000000E+00  0.00000000E+00  0.00000000E+00
  0.00000000E+00  0.00000000E+00  0.00000000E+00
  0.00000000E+00  0.00000000E+00  0.00000000E+00
  0.00000000E+00  0.00000000E+00  0.00000000E+00
  0.00000000E+00  0.00000000E+00  0.00000000E+00
  0.00000000E+00  0.00000000E+00  0.00000000E+00
  0.00000000E+00  0.00000000E+00  0.00000000E+00
  0.00000000E+00  0.00000000E+00  0.00000000E+00
  0.00000000E+00  0.00000000E+00  0.00000000E+00
  0.00000000E+00  0.00000000E+00  0.00000000E+00
  0.00000000E+00  0.00000000E+00  0.00000000E+00
  0.00000000E+00  0.00000000E+00  0.00000000E+00
  0.00000000E+00  0.00000000E+00  0.00000000E+00
  0.00000000E+00  0.00000000E+00  0.00000000E+00
  0.00000000E+00  0.00000000E+00  0.00000000E+00
  0.00000000E+00  0.00000000E+00  0.00000000E+00
  0.00000000E+00  0.00000000E+00  0.00000000E+00
  0.00000000E+00  0.00000000E+00  0.00000000E+00
  0.00000000E+00  0.00000000E+00  0.00000000E+00
  0.00000000E+00  0.00000000E+00  0.00000000E+00
  0.00000000E+00  0.00000000E+00  0.00000000E+00
  0.00000000E+00  0.00000000E+00  0.00000000E+00
  0.00000000E+00  0.00000000E+00  0.00000000E+00
  0.00000000E+00  0.00000000E+00  0.00000000E+00
  0.00000000E+00  0.00000000E+00  0.00000000E+00
  0.00000000E+00  0.00000000E+00  0.00000000E+00
  0.00000000E+00  0.00000000E+00  0.00000000E+00
  0.00000000E+00  0.00000000E+00  0.00000000E+00
  0.00000000E+00  0.00000000E+00  0.00000000E+00
  0.00000000E+00  0.00000000E+00  0.00000000E+00
  0.00000000E+00  0.00000000E+00  0.00000000E+00
  0.00000000E+00  0.00000000E+00  0.00000000E+00
  0.00000000E+00  0.00000000E+00  0.00000000E+00
  0.00000000E+00  0.00000000E+00  0.00000000E+00
  0.00000000E+00  0.00000000E+00  0.00000000E+00
  0.00000000E+00  0.00000000E+00  0.00000000E+00
  0.00000000E+00  0.00000000E+00  0.00000000E+00
  0.00000000E+00  0.00000000E+00  0.00000000E+00
  0.00000000E+00  0.00000000E+00  0.00000000E+00
  0.00000000E+00  0.00000000E+00  0.00000000E+00
  0.00000000E+00  0.00000000E+00  0.00000000E+00
  0.00000000E+00  0.00000000E+00  0.00000000E+00
  0.00000000E+00  0.00000000E+00  0.00000000E+00
  0.00000000E+00  0.00000000E+00  0.00000000E+00
  0.00000000E+00  0.00000000E+00  0.00000000E+00
  0.00000000E+00  0.00000000E+00  0.00000000E+00
  0.00000000E+00  0.00000000E+00  0.00000000E+00
  0.00000000E+00  0.00000000E+00  0.00000000E+00
  0.00000000E+00  0.00000000E+00  0.00000000E+00
  0.00000000E+00  0.00000000E+00  0.00000000E+00
  0.00000000E+00  0.00000000E+00  0.00000000E+00
  0.00000000E+00  0.00000000E+00  0.00000000E+00
  0.00000000E+00  0.00000000E+00  0.00000000E+00
  0.00000000E+00  0.00000000E+00  0.00000000E+00
  0.00000000E+00  0.00000000E+00  0.00000000E+00
  0.00000000E+00  0.00000000E+00  0.00000000E+00
  0.00000000E+00  0.00000000E+00  0.00000000E+00
  0.00000000E+00  0.00000000E+00  0.00000000E+00
  0.00000000E+00  0.00000000E+00  0.00000000E+00
