Li Mg Bi  S  O 
 1.0000000000000000
    11.1784999999999997    0.0000000000000000    0.0000000000000000
     0.0000000000000000    9.5746000000000002    0.0000000000000000
     0.0000000000000000    0.0000000000000000   11.1823999999999995
 Li  Mg  Bi  S   O  
   2   7  16  16  16
Direct
 -0.0529742968739510  1.0892465740227717  0.4366432839346445
  0.0497050122613277  1.1402929628149858  1.1030993702083745
  0.2330251872619495  0.1097756369674689  0.3437274448073989
  0.6912840570566655  0.0409961875553382  0.5879408290877869
  0.5525763784794243  1.0179662707408730  0.2596170045344226
 -0.1380910825513658  1.1306523742414927  0.8978873567447352
  0.2175230751748811  0.0906396479419791  0.8115584309370729
  0.6981069680241444  0.0587765263361925  1.0709699041895107
  0.4809286242274151  1.0612113762453701  0.7748409692408126
 -0.1541480144429190  0.3487764988718976  0.1456597804138717
  0.0573201716393858  0.8569001116910524  0.2033539741455028
  0.0731793468212325  0.3878250265800274  0.4149989780522728
  0.3125912360628096  0.7795042582094567  0.4201052486483247
  0.3202163124436133  0.3579613676996073  0.1599426331047525
  0.5876055603138235  0.6838077158153357  0.2471439357873025
  0.6028169400153486  0.3070171729003827  0.3948739957457683
  0.8303523781622137  0.7762520261190421  0.4597025321552488
 -0.1524005831425010  0.3114987759495452  0.6492527960360274
  0.0343031455044878  0.8559529143703282  0.7187122438852139
  0.0990476510741164  0.3849577933676805  0.9087314374998275
  0.2904242432659196  0.7797328624049795  0.9432240271778307
  0.3204803688823391  0.3464346536830030  0.6543934794277837
  0.5400775696268137  0.7206228143877218  0.6959819839051234
  0.5870210720334125  0.3923875349259467  0.9168761712095702
  0.8002410333712402  0.7638686726692385  0.9538613039446450
  0.0993635333257855  0.4212464304133250  0.1481491708557225
 -0.1753857289971059  0.7182786778810576  0.2162409410667908
  0.3294925569494678  0.4294915745386838  0.4360335561251124
  0.0816494552700993  0.6956327703738345  0.4330680909971550
  0.5839005841472886  0.4033300986189983  0.1623607702930731
  0.3063165902788586  0.6976198199704893  0.1960252425968948
  0.8398549619746218  0.3310274347234598  0.3833882634868215
  0.5961766047459898  0.6253932212410901  0.4800646709617445
  0.0682675295346464  0.4220961899485201  0.6491425765009196
 -0.1613254483753489  0.6793138498835846  0.6715405976891544
  0.3493258910185648  0.4504299222485722  0.8745896390965060
  0.0568829629040660  0.6864688897840593  0.8971069888112230
  0.6005721583024906  0.2857471439473863  0.6534438593050346
  0.3012840839186812  0.7910062892683966  0.6619514730030970
  0.8365471314963926  0.4140090124357590  0.8981466876110348
  0.5654520626828566  0.7160595980630503  0.9327395280959362
  0.3797908287727873  0.1575113873176165  0.2136396814166732
  0.1311432457895728  1.0727421626723115  0.2102464909867139
  0.1096051389499476  0.1738138389570096  0.4562727027299073
 -0.1987251170080673  0.9904649332143730  0.4372416388479530
  0.8861585327812054  0.1433316278974603  0.1257927170271672
  0.6046070626877226  0.8899053134551449  0.1719752736382066
  0.5427186317854420  0.1059118536814779  0.4415030998938653
  0.3488677395200602  0.9773807254163646  0.3807515929618550
  0.3348346676837949  0.1399271715439808  0.6880029271020730
  0.0438966574700006  1.0502315875360857  0.7957731220977419
  0.1824640817826857  0.2009060328700888  0.9544859931367637
 -0.1846888733721092  0.9815257826418815  0.9568712080724506
  0.8505231336057685  0.1074553771154123  0.6477013685175977
  0.5851716527402936  0.9301460088526416  0.6922367827128549
  0.6280467582702327  0.1775274552375601  0.9398617078966510
  0.3515359178613629  0.9825860522260830  0.8849481403623477
