Li Mg Bi  S  O 
 1.0000000000000000
    11.1784999999999997    0.0000000000000000    0.0000000000000000
     0.0000000000000000    9.5746000000000002    0.0000000000000000
     0.0000000000000000    0.0000000000000000   11.1823999999999995
 Li  Mg  Bi  S   O  
   4   6  16  16  16
Direct
  0.4038514409229476 -0.0042644412931069  0.6878822563996969
  0.4000100994093611  0.0759736263964551  0.2217475765663846
  0.9038514409109231 -0.0042644413587218  0.6878822563959724
  0.9000100993746540  0.0759736263675200  0.2217475765956488
  0.1422106957460740  1.0621381998259714  0.0788080093342188
  0.6422106957594914  1.0621381998350197  0.0788080093226329
  0.4087978749766447  0.0344125901803961  0.9360345549150771
  0.1598128809220705  0.9978065589819124  0.7105455102975806
  0.9087978749739931  0.0344125901623009  0.9360345548857489
  0.6598128809259584  0.9978065590189320  0.7105455102267207
  0.0184480313986109  0.3784037121991962  0.0619327670317806
  0.2457581166026758  0.7147723700040214  0.0451524962875648
  0.2588852504937142  0.3276891327603186  0.3019928351695016
  0.4811347329723699  0.7802813145006009  0.2647431295819292
  0.5184480314189491  0.3784037122094566  0.0619327670273467
  0.7457581166012616  0.7147723699932917  0.0451524962889642
  0.7588852505085646  0.3276891327750817  0.3019928351687910
  0.9811347329826872  0.7802813144776647  0.2647431295786928
  0.0197850936707868  0.2954479053397641  0.5665040930559639
  0.2800898597106686  0.6839577903306250  0.5308593006825985
  0.2651210585424658  0.3311113592795981  0.8037532503503831
  0.5133113492565182  0.6992864568847877  0.7847796723332620
  0.5197850936530939  0.2954479053942972  0.5665040930503672
  0.7800898596463706  0.6839577903168559  0.5308593006416392
  0.7651210585316397  0.3311113592837236  0.8037532503336181
  1.0133113492674977  0.6992864567954137  0.7847796723010990
  0.2623017049161181  0.3779872057376671  0.0530426358436482
 -0.0180893375625332  0.6470299971035971  0.0598443840644621
  0.4975103730609535  0.3529739689412303  0.3145117354786948
  0.2223755963691826  0.7046397049384537  0.2951350087286462
  0.7623017049161597  0.3779872057375999  0.0530426358436446
  0.4819106624381033  0.6470299971036940  0.0598443840647034
  0.9975103730806032  0.3529739688658652  0.3145117354757383
  0.7223755963330244  0.7046397048929550  0.2951350087022276
  0.2589888453707797  0.3358609756522338  0.5582088373514266
  0.0202954368661558  0.6397229659406666  0.5562656660069696
  0.5078967305863579  0.3723324759517508  0.8097346897910387
  0.2538191178885803  0.6138522504172663  0.8067299406657277
  0.7589888453676248  0.3358609756628987  0.5582088373420402
  0.5202954369037949  0.6397229659490502  0.5562656660579747
  1.0078967305890505  0.3723324759462851  0.8097346897836190
  0.7538191178884104  0.6138522504173866  0.8067299406658854
  0.5061539714032096  0.1865986492231467  0.0292021971434104
  0.2688822151593765  0.9326793786486935  0.0127341421075039
  0.2299972213619083  0.1289090207233163  0.2162152801909056
  0.0096168678995448  0.9727876087114339  0.1679074249433629
  1.0061539714045624  0.1865986492057566  0.0292021971270837
  0.7688822151615586  0.9326793786408195  0.0127341421048399
  0.7299972213563584  0.1289090207359496  0.2162152801969383
  0.5096168679224788  0.9727876087100520  0.1679074249358503
  0.5330525113280340  0.0925359003257339  0.6171943669462828
  0.2720122046318299  0.8764238041764514  0.6204264091532350
  0.2866363475148518  0.1030345315289129  0.8048438100437524
  0.0201055856129826  0.9189461891047580  0.8221808404013782
  1.0330525113355489  0.0925359002795550  0.6171943669809479
  0.7720122046235945  0.8764238041798411  0.6204264090922003
  0.7866363475133190  0.1030345315268254  0.8048438100161516
  0.5201055856263935  0.9189461891786161  0.8221808403964501
