Li Mg Bi  S  O 
 1.0000000000000000
    11.1784999999999997    0.0000000000000000    0.0000000000000000
     0.0000000000000000    9.5746000000000002    0.0000000000000000
     0.0000000000000000    0.0000000000000000   11.1823999999999995
 Li  Mg  Bi  S   O  
  14   1  16  16  16
Direct
  0.3628173208605688  0.0003468356557080  0.4369912739550462
  0.1233846404269552  1.0021936823431430  0.2109972252060730
  0.3787021797556839  0.0005154651875138  0.1871226099791579
  0.6251721685146626  1.0001541830917970  0.4371859242282343
  0.8871532265348684  0.0000726487772325  0.4375527296258031
  0.6256274515133771  0.9998552941339335  0.1902893827074147
  0.8723641349756779 -0.0000056182118621  0.1869581599548902
  0.3802800413265872  0.0004305471391080  0.9372585448737162
  0.1252212695779597  1.0004156011561025  0.6666519826827763
  0.3773788799214783 -0.0000657444772064  0.6878170099947511
  0.6254487118679611  1.0000170063763347  0.9375235570530960
  0.8701394775722708 -0.0001625733317276  0.9376111876574853
  0.6243641248367504  1.0003537192149055  0.6840316393207473
  0.8719608575093278  0.0008943849590168  0.6872406895837443
  0.1249941768858068  1.0012267683815863  0.9378275774323234
 -0.0003900798254156  0.3054855231829551  0.0627112609970773
  0.2511062724289035  0.6977065986062289  0.0621568564276053
  0.2507686368355697  0.2928506811706860  0.3125724238732764
  0.5008040884735244  0.7048930230287335  0.3125034249586784
  0.4996454528788171  0.2947231216273639  0.0628227251873554
  0.7500936657917834  0.7052726877739304  0.0631230680414211
  0.7490854763115534  0.2955638355976195  0.3124544195132600
  0.9990336425800174  0.7082312689916068  0.3131301638507613
 -0.0025160957409791  0.2926836661759558  0.5622819357806315
  0.2516724970561098  0.7076981911952894  0.5623878667140281
  0.2499318284061939  0.3045707917340406  0.8112402343338418
  0.5011466229285850  0.7062548800792993  0.8116846442851471
  0.4995625151663884  0.2955007428920201  0.5617455876834686
  0.7500776454256534  0.7053367682462789  0.5620867987911403
  0.7487163032628265  0.2943523663292544  0.8116647168038842
  0.9997371866858095  0.6961739634003454  0.8123018838528947
  0.2509857086670511  0.3461775240208341  0.0604368326965343
  0.0010091245261112  0.6559837903338084  0.0621127894662991
  0.5010552064570514  0.3431205522491909  0.3119678716238647
  0.2508113114249998  0.6688094954674588  0.3119161163283501
  0.7507985411935173  0.3396587788576000  0.0619646863634593
  0.5001292886257652  0.6607075559856312  0.0619473124719245
  1.0009219227243127  0.3331065433888247  0.3110731386201934
  0.7498952188849440  0.6568881223384879  0.3122962713209381
  0.2510593328707179  0.3319247184682574  0.5631656748644595
 -0.0003911058149722  0.6655789708759848  0.5646472644907564
  0.5006570896852963  0.3396514542983993  0.8127036868292644
  0.2495956650658519  0.6552345361101097  0.8136502749860945
  0.7505499823563816  0.3433254484678212  0.5627895352040961
  0.5006252268518511  0.6574176730505109  0.5630746973201540
  1.0000108958354523  0.3438690973648434  0.8152987273603751
  0.7501270944613894  0.6605102476801155  0.8134204554252120
  0.4999300997887263  0.0762576874692876  0.0616072980944386
 -0.0142131625407908  0.9208518949510058  0.2983317879406855
  0.2460327328894626  0.9191688383100247  0.0521011210191549
  0.2637430712168109  0.0800044745545042  0.2976926420450350
  1.0046999107361003  0.0833970774874767  0.0533870149155880
  0.5029677969409763  0.9222183805886216  0.3115443112451475
  0.7506311186860093  0.9237029181353525  0.0617632802545299
  0.7473832467215551  0.0782518869957195  0.3116721586218824
  0.5023560590493508  0.0781263813656403  0.5627886783585935
  0.0050731334866429  0.9178874462458430  0.8228268630469289
  0.2635939645185590  0.9207028522207695  0.5769935086381770
  0.2452724861315433  0.0830468878735136  0.8217129914068534
  0.9865018177549725  0.0797189762841255  0.5770731955816709
  0.4997739923913210  0.9245580848243878  0.8128949120168583
  0.7478332657232747  0.9225923317946068  0.5626797645943211
  0.7499989058365928  0.0758978564253502  0.8126833462399139
