Li Mg Bi  S  O 
 1.0000000000000000
    11.1784999999999997    0.0000000000000000    0.0000000000000000
     0.0000000000000000    9.5746000000000002    0.0000000000000000
     0.0000000000000000    0.0000000000000000   11.1823999999999995
 Li  Mg  Bi  S   O  
   4   6  16  16  16
Direct
  0.3816459900674567 -0.0006639048057889  0.3346524732761667
  0.8816459900675128 -0.0006639048057750  0.3346524732761600
  0.3808827055337309 -0.0097073406700864  0.6912347307706234
  0.8808827055337273 -0.0097073406701102  0.6912347307706119
  0.1317973350458857  0.9984854686676035  0.1631513071687459
  0.6317973350457851  0.9984854686676012  0.1631513071688050
  0.3822137194492779 -0.0036066419374437  0.9496665037058275
  0.1303110658294332  0.9953766563893324  0.7240680722284504
  0.8822137194494216 -0.0036066419374019  0.9496665037058188
  0.6303110658294414  0.9953766563893316  0.7240680722285164
  0.0030147451595778  0.3097269428686037  0.0675362137041227
  0.2552728152134931  0.6856666012943264  0.0664545610916548
  0.2469465072362733  0.3018290879239363  0.3145382497959942
  0.5091564041051267  0.6980674180936797  0.3159375299296143
  0.5030147451595460  0.3097269428685349  0.0675362137041376
  0.7552728152134929  0.6856666012943159  0.0664545610916293
  0.7469465072363027  0.3018290879239612  0.3145382497960366
  1.0091564041051113  0.6980674180936222  0.3159375299296019
  0.0054834780343486  0.2952611159965507  0.5749490543206547
  0.2475435204922612  0.6896079823444388  0.5696912539289587
  0.2557704889894875  0.3065376021837433  0.8167476415190934
  0.5012472623243880  0.6834540392171373  0.8146411671461861
  0.5054834780343677  0.2952611159965432  0.5749490543206817
  0.7475435204922739  0.6896079823444791  0.5696912539289810
  0.7557704889894962  0.3065376021837113  0.8167476415191682
  1.0012472623243709  0.6834540392171308  0.8146411671461982
  0.2511771246596025  0.3499338791100436  0.0672008423303240
  0.0088136765944155  0.6477596578960046  0.0635992774817069
  0.5021010230334673  0.3356621349397808  0.3213847934728043
  0.2571928901948574  0.6705526084054707  0.3135919605512333
  0.7511771246595923  0.3499338791100036  0.0672008423303316
  0.5088136765944123  0.6477596578960501  0.0635992774817222
  1.0021010230334597  0.3356621349397731  0.3213847934727826
  0.7571928901948626  0.6705526084054497  0.3135919605512215
  0.2498612004242131  0.3340586871001381  0.5712687237299621
  0.0006814463008429  0.6628597951419245  0.5589593899083548
  0.4977850627956474  0.3513306731379705  0.8237085643237048
  0.2621613545604367  0.6334903111330076  0.8154411562286288
  0.7498612004242167  0.3340586871000964  0.5712687237299936
  0.5006814463008518  0.6628597951419284  0.5589593899083725
  0.9977850627956617  0.3513306731379547  0.8237085643236765
  0.7621613545604332  0.6334903111329798  0.8154411562286369
  0.5070132183730620  0.0905457315839680  0.0542867651795914
  0.2549477763694234  0.9054742161461985  0.0526166702866512
  0.2457155139827469  0.0915329775841311  0.2777730439566394
  0.0171721336178811  0.9089348423279543  0.2787670573922807
  1.0070132183731151  0.0905457315840370  0.0542867651795893
  0.7549477763695083  0.9054742161463150  0.0526166702865897
  0.7457155139827630  0.0915329775841540  0.2777730439567065
  0.5171721336179083  0.9089348423280083  0.2787670573923506
  0.5120372395689524  0.0878559617224331  0.6170412921182070
  0.2451010252228558  0.8947235796517283  0.6219526093683312
  0.2704956527422616  0.0836262155336987  0.8190821905925370
 -0.0070834820716550  0.9066229082988591  0.8214257979087569
  1.0120372395689661  0.0878559617223061  0.6170412921182015
  0.7451010252228293  0.8947235796516764  0.6219526093683297
  0.7704956527422188  0.0836262155338319  0.8190821905925632
  0.4929165179282654  0.9066229082988445  0.8214257979088079
