Li Mg Bi  S  O 
 1.0000000000000000
    11.1784999999999997    0.0000000000000000    0.0000000000000000
     0.0000000000000000    9.5746000000000002    0.0000000000000000
     0.0000000000000000    0.0000000000000000   11.1823999999999995
 Li  Mg  Bi  S   O  
  10   3  16  16  16
Direct
  0.3622335677720537 -0.0022941457512410  0.4424574163271985
  0.1249502287380011  1.0004792511805973  0.1868852136049190
  0.6250349819365647  1.0005478003410535  0.4254610074721352
  0.8868276049231753  0.0035693282531512  0.4424255676105113
  0.3601635961935862  0.0028745481196079  0.9310838021635708
  0.3816144349236745  0.0009454707523370  0.6872525259394220
  0.6264311410361603  1.0000740373352170  0.9488684345230777
  0.8896540905038188 -0.0023286559721744  0.9318566180658970
  0.6248682038962056  1.0001096215987140  0.6872064412325460
  0.8685126266869581 -0.0013656711492992  0.6866947409779707
  0.3915701262457594  0.0004437750256428  0.1873886749948025
  0.8579963631221407  0.0009770417064324  0.1872976142037042
  0.1253353048764003  0.9994730035406081  0.6869068572857532
 -0.0036120734193305  0.3022751426304570  0.0660363982304131
  0.2516538682198361  0.6992048952547694  0.0650840573696200
  0.2518945836765790  0.3021418591574402  0.3104768405420642
  0.4983181057853188  0.6972961371158902  0.3144067616160092
  0.4972649142446128  0.3029188789538476  0.0582539604745888
  0.7521569017592298  0.6968348998947613  0.0595441795322738
  0.7501896869229578  0.3039170531882676  0.3158602321436434
  0.9971196176502648  0.7004516251617914  0.3121121718992654
  0.0000742254933552  0.2997296505365562  0.5632415690551544
  0.2520711090421362  0.6982138749328931  0.5637823941622050
  0.2483211573779756  0.3026982266347633  0.8111390115209848
  0.5007837568245281  0.7063675046637929  0.8122948619815532
  0.4994758788771838  0.2948994463290662  0.5631712311789181
  0.7488811653878470  0.7051740903402072  0.5630257225900632
  0.7487314489035654  0.2939204517873464  0.8115469866447532
  0.9996947755312130  0.6981364327104429  0.8102391441808444
  0.2511311228505737  0.3425937359029138  0.0636014630616279
 -0.0014232901539643  0.6564819779049520  0.0642149372461199
  0.5015239685503412  0.3383452443007635  0.3133748309254609
  0.2512909701017859  0.6575759434779619  0.3134547565384864
  0.7480080402731715  0.3380069771547162  0.0641008014555201
  0.5020663771038396  0.6612042568170644  0.0640695291210843
  0.9990471328481149  0.3442161085046845  0.3113905605123594
  0.7486528059385331  0.6610832447868651  0.3135951761980016
  0.2483244011851835  0.3401839838060198  0.5628019209161172
  0.0007460086461555  0.6613466086575601  0.5627471028361209
  0.4998297091179097  0.3459004417548753  0.8111100963673333
  0.2482146135063545  0.6613898942789230  0.8132982778262208
  0.7516233453403579  0.3444444478594502  0.5635106918467973
  0.5001007181887871  0.6560244190338396  0.5638358259652581
  1.0001248433277330  0.3373123233334344  0.8144661811540408
  0.7501374533043793  0.6546079703130525  0.8125193191467917
  0.4848751113015337  0.0851742430710094  0.0521646627427902
  0.2686700083969275  0.9143584653716339  0.0792663717946520
  0.2696558731667257  0.0870200534501736  0.2962391323659531
 -0.0199055702973604  0.9155574199248250  0.2966626974467659
  0.9807755359164745  0.0862787447643900  0.0789745076642538
  0.7653354930142181  0.9146272607442233  0.0522346481907974
  0.7638393775857976  0.0860789091723293  0.3222083249234407
  0.4852045269450855  0.9149813488751536  0.3221420241453021
  0.5004550668985341  0.0778905882533160  0.5626717380417129
  0.2565782376062178  0.9153491158779535  0.5816927119707843
  0.2544178302341615  0.0862263457962614  0.7926573395343057
 -0.0053964565327407  0.9151831922782807  0.7927367855330192
  0.9953009995154887  0.0828445802061654  0.5803513379886602
  0.7494645276798969  0.9223390101384430  0.5625809395721895
  0.7487830744000035  0.0768473067139942  0.8116971588631924
  0.5002081168306793  0.9233120698172372  0.8123590829989847
