Li4 Mg6 Bi16 S16 O16                    
   1.00000000000000     
    11.2274907091748624    0.0947637381477910    0.0336981340444587
     0.0788272583222635    9.6484627268534933    0.0971501154284618
     0.0335114256130867    0.1150674368792324   11.2156477441486242
   Li   Mg   Bi   S    O 
     4     6    16    16    16
Direct
  0.5145422299359973  0.0239986781832535  0.4168241910796128
  0.1525844598635672 -0.0132767263082629  0.9288224747631670
  0.3813706835841313 -0.0041246230313012  0.6951381053947178
  0.6306433685486320  0.0135992498237387  0.9634341077836382
  0.1182273753601912 -0.0046411691661582  0.2060506935418344
  0.3785037050136935 -0.0020183271890629  0.1672451037538502
  0.8865688479755223 -0.0013818042577133  0.4558481634768429
  0.8581946274279755  0.0109373711685834  0.1816600546283574
  0.1229979153489621  0.0025750487074297  0.6782687140385587
  0.6407249421696434 -0.0021533417437065  0.6803573496236435
 -0.0013574274965165  0.3119932810402512  0.0670117895761565
  0.2486297778411479  0.6878525352013555  0.0638161962531331
  0.2544590467427957  0.3065043281983831  0.3073493384284330
  0.4951973420673421  0.6945681763536237  0.3057834637083280
  0.4974605805483590  0.3031337751328125  0.0597415361573777
  0.7486722872963956  0.7070929091489465  0.0627737720163011
  0.7550501725120743  0.3146762198860126  0.3181026765147283
 -0.0036412891566895  0.6814226771028521  0.3125419879300284
  0.0028501900769403  0.3086169653830001  0.5667124427847758
  0.2561417427932667  0.7007446096249399  0.5678977484721112
  0.2493499839921708  0.3017830543682088  0.8087871551938135
  0.5043899807855564  0.6908177896867549  0.8045638151157742
  0.5019068588261255  0.3089984878833582  0.5670760418099382
  0.7527631891125743  0.6933515372343459  0.5655755832025623
  0.7464324251556317  0.2967610186125539  0.8162409025831447
  0.0084414028824968  0.6986993143060588  0.8135118948264659
  0.2534485949870033  0.3605277438860285  0.0657650869556153
 -0.0024218729916325  0.6521215013823802  0.0614508833020424
  0.5056288156510922  0.2930283569936458  0.3179921461793917
  0.2480258026043064  0.6474179549274371  0.3044408002998581
  0.7554118360827181  0.3270394754721283  0.0691677198621368
  0.4969314821929101  0.6691579282016960  0.0586586990706484
  0.0054487054643632  0.3632546262532029  0.3154029370387215
  0.7498457445436777  0.6547541053920626  0.3082419192729939
  0.2533037489157220  0.3408050665941391  0.5648815072966654
 -0.0010094467461493  0.6679459842079259  0.5579748582041240
  0.5040829822812980  0.3564212708157184  0.8145986335937188
  0.2484685726994475  0.6319258031792372  0.8061125831651493
  0.7554815222081727  0.3478585915564596  0.5665959090234395
  0.5009699144062272  0.6484330199757996  0.5546381126136305
  0.0047626440256154  0.3367128412625193  0.8141930972172331
  0.7484446331791653  0.6560890592221880  0.8085263783602880
  0.4878902793788792  0.0918988364192817  0.0539766237225746
  0.2331382969125093  0.9084855125640785  0.0855438344463609
  0.2524776224751113  0.0966616775057544  0.2680365561220318
 -0.0195547044093788  0.9087996303507845  0.3024651120302616
  0.0019868330730148  0.0968457270307094  0.1031706178143701
  0.7500936608019162  0.9183113719064382  0.0736179201683773
  0.7973054410295651  0.1029134539542363  0.3275015093800200
  0.4732410279532461  0.9049072509688831  0.2961708590998178
  0.5159877037290848  0.0929812127275240  0.5780724520981608
  0.2564137347125421  0.9076896180849482  0.5973700276947879
  0.2370220992781275  0.0884462958020979  0.7946520909461043
  0.0473349052916521  0.9037090240929714  0.8142603680155712
  0.0050663248924459  0.0904742368304401  0.5615111928322344
  0.7568324490202747  0.9120340601278991  0.5605498164738774
  0.7105973933320043  0.0909670585182193  0.8166847494063763
  0.5154588338170750  0.9005706684428868  0.7754996956361516
 
  0.00000000E+00  0.00000000E+00  0.00000000E+00
  0.00000000E+00  0.00000000E+00  0.00000000E+00
  0.00000000E+00  0.00000000E+00  0.00000000E+00
  0.00000000E+00  0.00000000E+00  0.00000000E+00
  0.00000000E+00  0.00000000E+00  0.00000000E+00
  0.00000000E+00  0.00000000E+00  0.00000000E+00
  0.00000000E+00  0.00000000E+00  0.00000000E+00
  0.00000000E+00  0.00000000E+00  0.00000000E+00
  0.00000000E+00  0.00000000E+00  0.00000000E+00
  0.00000000E+00  0.00000000E+00  0.00000000E+00
  0.00000000E+00  0.00000000E+00  0.00000000E+00
  0.00000000E+00  0.00000000E+00  0.00000000E+00
  0.00000000E+00  0.00000000E+00  0.00000000E+00
  0.00000000E+00  0.00000000E+00  0.00000000E+00
  0.00000000E+00  0.00000000E+00  0.00000000E+00
  0.00000000E+00  0.00000000E+00  0.00000000E+00
  0.00000000E+00  0.00000000E+00  0.00000000E+00
  0.00000000E+00  0.00000000E+00  0.00000000E+00
  0.00000000E+00  0.00000000E+00  0.00000000E+00
  0.00000000E+00  0.00000000E+00  0.00000000E+00
  0.00000000E+00  0.00000000E+00  0.00000000E+00
  0.00000000E+00  0.00000000E+00  0.00000000E+00
  0.00000000E+00  0.00000000E+00  0.00000000E+00
  0.00000000E+00  0.00000000E+00  0.00000000E+00
  0.00000000E+00  0.00000000E+00  0.00000000E+00
  0.00000000E+00  0.00000000E+00  0.00000000E+00
  0.00000000E+00  0.00000000E+00  0.00000000E+00
  0.00000000E+00  0.00000000E+00  0.00000000E+00
  0.00000000E+00  0.00000000E+00  0.00000000E+00
  0.00000000E+00  0.00000000E+00  0.00000000E+00
  0.00000000E+00  0.00000000E+00  0.00000000E+00
  0.00000000E+00  0.00000000E+00  0.00000000E+00
  0.00000000E+00  0.00000000E+00  0.00000000E+00
  0.00000000E+00  0.00000000E+00  0.00000000E+00
  0.00000000E+00  0.00000000E+00  0.00000000E+00
  0.00000000E+00  0.00000000E+00  0.00000000E+00
  0.00000000E+00  0.00000000E+00  0.00000000E+00
  0.00000000E+00  0.00000000E+00  0.00000000E+00
  0.00000000E+00  0.00000000E+00  0.00000000E+00
  0.00000000E+00  0.00000000E+00  0.00000000E+00
  0.00000000E+00  0.00000000E+00  0.00000000E+00
  0.00000000E+00  0.00000000E+00  0.00000000E+00
  0.00000000E+00  0.00000000E+00  0.00000000E+00
  0.00000000E+00  0.00000000E+00  0.00000000E+00
  0.00000000E+00  0.00000000E+00  0.00000000E+00
  0.00000000E+00  0.00000000E+00  0.00000000E+00
  0.00000000E+00  0.00000000E+00  0.00000000E+00
  0.00000000E+00  0.00000000E+00  0.00000000E+00
  0.00000000E+00  0.00000000E+00  0.00000000E+00
  0.00000000E+00  0.00000000E+00  0.00000000E+00
  0.00000000E+00  0.00000000E+00  0.00000000E+00
  0.00000000E+00  0.00000000E+00  0.00000000E+00
  0.00000000E+00  0.00000000E+00  0.00000000E+00
  0.00000000E+00  0.00000000E+00  0.00000000E+00
  0.00000000E+00  0.00000000E+00  0.00000000E+00
  0.00000000E+00  0.00000000E+00  0.00000000E+00
  0.00000000E+00  0.00000000E+00  0.00000000E+00
  0.00000000E+00  0.00000000E+00  0.00000000E+00
