Li10 Mg3 Bi16 S16 O16                   
   1.00000000000000     
    11.2161438278928713    0.0016773819188561   -0.0018668314684028
     0.0014187446696543    9.5287627645945836   -0.0192730863313461
    -0.0018705820758166   -0.0211827861779121   11.1797750983806576
   Li   Mg   Bi   S    O 
    10     3    16    16    16
Direct
  0.3798790059589788  0.0000631604392369  0.4376231654501831
  0.1199421239309141  0.0095999166205042  0.2241213546884409
  0.3979312462095639  0.0162584612202733  0.2025715382545689
  0.6581818812622606  0.9719144955744745  0.2466760876155860
  0.8843890973902604 -0.0017467569237333  0.1755058150908812
  0.1201091233879682  0.9903604715362418  0.6507973333294330
  0.3989283736847656 -0.0169889419733325  0.6725664007695668
  0.7288304947253894 -0.0062765306442053  0.9333800876723456
  0.6588635390074915  0.0287793887721940  0.6268656664932089
  0.8848187370088321  0.0010955295240738  0.6982962807695337
  0.8893898142297998  0.0001805885497184  0.4369743010720147
  0.1139519844703067 -0.0001610314397408  0.9376351411080135
  0.3723269442926456 -0.0002391048493419  0.9378382037248477
  0.0002275408791043  0.3030034403804551  0.0661745205608913
  0.2488786784701878  0.6837199030771504  0.0583452856458555
  0.2558432630041564  0.2974661436346417  0.3143322245010053
  0.4979346426206961  0.6999045380331588  0.3129900401532796
  0.4967659207837091  0.3073433440930236  0.0627512212099748
  0.7484352939773612  0.6969424498597566  0.0677870728253308
  0.7543088690550899  0.3035017657710874  0.3118493760336036
  0.0013739212432173  0.6925484218166176  0.3103187116941625
  0.0012460299630712  0.3073947000437788  0.5647357750392921
  0.2559162251088916  0.7026737367925869  0.5610414864337001
  0.2488672379259572  0.3160569818958667  0.8172055625058796
  0.4968074656426891  0.6918453231955881  0.8126804670787180
  0.4978652010517629  0.3002052485427394  0.5622949783986489
  0.7544342051274958  0.6968737085371884  0.5630396486534920
  0.7485323255193091  0.3019759275900618  0.8074680037769866
  0.0003666336969706  0.6967519167094239  0.8090448124197567
  0.2458858997237916  0.3609835794324376  0.0639215359726579
 -0.0021858102628530  0.6584981417153831  0.0618646070249547
  0.4997599193869647  0.3403613126013340  0.3117099573597610
  0.2481283372833281  0.6676812472953103  0.3122157425935645
  0.7486182403090451  0.2996181509447247  0.0583522670121507
  0.4975435737469271  0.6579248393597518  0.0627446973318200
 -0.0008968136654829  0.3481057393836934  0.3126460627187898
  0.7488819096720237  0.6523217374628137  0.3170812797203628
  0.2481593734783633  0.3321601221630732  0.5636754635236784
 -0.0008581858896818  0.6518518051215667  0.5630182604702921
  0.4977028298348201  0.3413988908825657  0.8128992310081501
  0.2456785112302508  0.6390355728913298  0.8118940706426679
  0.7488962167723722  0.3483648921442406  0.5595808507193710
  0.4997843600053264  0.6600079663538670  0.5639698927891013
 -0.0023527680259033  0.3414861450087452  0.8137254115285539
  0.7482143906218478  0.7110653509252587  0.8186027878202916
  0.4653507446777887  0.0947017151765156  0.0614730339767513
  0.2434646285837181  0.9036733370982972  0.0329964417598502
  0.2665299218646338  0.0832997399216858  0.3005525839415752
 -0.0121809222991536  0.9114802980553941  0.3074778855265592
  0.0236067310374607  0.0846445784260374  0.0754536644502705
  0.7485837258534049  0.9112162061715956  0.0897766993463055
  0.7818578965376065  0.0874846455823297  0.3157067552067987
  0.5007265266869020  0.9149822607594751  0.3083273071090073
  0.5009969779742132  0.0850759308480198  0.5667277196478048
  0.2668315730043436  0.9168258482224007  0.5747101370698018
  0.2434832280194882  0.0962797794612595  0.8428793941388512
  0.0242955800986844  0.9150138854608716  0.7993267588686525
  0.9878017620942050  0.0884270044574792  0.5670022658667866
  0.7820532920147747  0.9127718563527470  0.5580646632554721
  0.7490341047540495  0.0882673699111539  0.7839187322669124
  0.4650884252478823  0.9045028540291274  0.8142632763632617
 
  0.00000000E+00  0.00000000E+00  0.00000000E+00
  0.00000000E+00  0.00000000E+00  0.00000000E+00
  0.00000000E+00  0.00000000E+00  0.00000000E+00
  0.00000000E+00  0.00000000E+00  0.00000000E+00
  0.00000000E+00  0.00000000E+00  0.00000000E+00
  0.00000000E+00  0.00000000E+00  0.00000000E+00
  0.00000000E+00  0.00000000E+00  0.00000000E+00
  0.00000000E+00  0.00000000E+00  0.00000000E+00
  0.00000000E+00  0.00000000E+00  0.00000000E+00
  0.00000000E+00  0.00000000E+00  0.00000000E+00
  0.00000000E+00  0.00000000E+00  0.00000000E+00
  0.00000000E+00  0.00000000E+00  0.00000000E+00
  0.00000000E+00  0.00000000E+00  0.00000000E+00
  0.00000000E+00  0.00000000E+00  0.00000000E+00
  0.00000000E+00  0.00000000E+00  0.00000000E+00
  0.00000000E+00  0.00000000E+00  0.00000000E+00
  0.00000000E+00  0.00000000E+00  0.00000000E+00
  0.00000000E+00  0.00000000E+00  0.00000000E+00
  0.00000000E+00  0.00000000E+00  0.00000000E+00
  0.00000000E+00  0.00000000E+00  0.00000000E+00
  0.00000000E+00  0.00000000E+00  0.00000000E+00
  0.00000000E+00  0.00000000E+00  0.00000000E+00
  0.00000000E+00  0.00000000E+00  0.00000000E+00
  0.00000000E+00  0.00000000E+00  0.00000000E+00
  0.00000000E+00  0.00000000E+00  0.00000000E+00
  0.00000000E+00  0.00000000E+00  0.00000000E+00
  0.00000000E+00  0.00000000E+00  0.00000000E+00
  0.00000000E+00  0.00000000E+00  0.00000000E+00
  0.00000000E+00  0.00000000E+00  0.00000000E+00
  0.00000000E+00  0.00000000E+00  0.00000000E+00
  0.00000000E+00  0.00000000E+00  0.00000000E+00
  0.00000000E+00  0.00000000E+00  0.00000000E+00
  0.00000000E+00  0.00000000E+00  0.00000000E+00
  0.00000000E+00  0.00000000E+00  0.00000000E+00
  0.00000000E+00  0.00000000E+00  0.00000000E+00
  0.00000000E+00  0.00000000E+00  0.00000000E+00
  0.00000000E+00  0.00000000E+00  0.00000000E+00
  0.00000000E+00  0.00000000E+00  0.00000000E+00
  0.00000000E+00  0.00000000E+00  0.00000000E+00
  0.00000000E+00  0.00000000E+00  0.00000000E+00
  0.00000000E+00  0.00000000E+00  0.00000000E+00
  0.00000000E+00  0.00000000E+00  0.00000000E+00
  0.00000000E+00  0.00000000E+00  0.00000000E+00
  0.00000000E+00  0.00000000E+00  0.00000000E+00
  0.00000000E+00  0.00000000E+00  0.00000000E+00
  0.00000000E+00  0.00000000E+00  0.00000000E+00
  0.00000000E+00  0.00000000E+00  0.00000000E+00
  0.00000000E+00  0.00000000E+00  0.00000000E+00
  0.00000000E+00  0.00000000E+00  0.00000000E+00
  0.00000000E+00  0.00000000E+00  0.00000000E+00
  0.00000000E+00  0.00000000E+00  0.00000000E+00
  0.00000000E+00  0.00000000E+00  0.00000000E+00
  0.00000000E+00  0.00000000E+00  0.00000000E+00
  0.00000000E+00  0.00000000E+00  0.00000000E+00
  0.00000000E+00  0.00000000E+00  0.00000000E+00
  0.00000000E+00  0.00000000E+00  0.00000000E+00
  0.00000000E+00  0.00000000E+00  0.00000000E+00
  0.00000000E+00  0.00000000E+00  0.00000000E+00
  0.00000000E+00  0.00000000E+00  0.00000000E+00
  0.00000000E+00  0.00000000E+00  0.00000000E+00
  0.00000000E+00  0.00000000E+00  0.00000000E+00
