Li8 Mg4 Bi16 S16 O16                    
   1.00000000000000     
    11.2327796545210532    0.0886011031128697   -0.0105681712173090
     0.0758804326927709    9.5784727884899876    0.0047400125840882
    -0.0100872583895702    0.0085595499876144   11.2258574742624759
   Li   Mg   Bi   S    O 
     8     4    16    16    16
Direct
  0.1579084359363410 -0.0389924615960232  0.2627810058914759
  0.4080197472702851  0.0118009490203518  0.2082095603442359
  0.6492219801634920  0.0000911026724431  0.1869385093014935
  0.1457345918557213  0.0210174130359760  0.9656365406196413
  0.3702420488207405  0.0004376492643994  0.9505269300479209
  0.2256042998296643  0.0237239781250588  0.6766522662085841
  0.6028921899163362  0.9866096898427161  0.9621702592403976
  0.5737534323582328  0.0460495267088504  0.7332620719076560
  0.6210274333883131 -0.0087237342025289  0.4452016356250475
  0.8888054117570147  0.0097796974185592  0.4150373889162555
  0.8642472657626299 -0.0001996871414596  0.9396044619621006
  0.8544416510298229 -0.0016962005177902  0.6777922219974339
 -0.0032990190887234  0.3029998187681488  0.0577822130041683
  0.2505292395958454  0.6977903961051406  0.0555568168159725
  0.2494662030836532  0.2926066711849317  0.3133023881643060
  0.5022740176509761  0.6998291731088969  0.3077978443819698
  0.4950443950622082  0.3028806396167830  0.0655600206242515
  0.7484067738908733  0.6932692584438249  0.0537502837114588
  0.7454636372548054  0.3094064966445904  0.3137530970340714
  0.0024211202212039  0.6893521245962728  0.3071571255565433
 -0.0018255599974928  0.3107360703121270  0.5591524838792719
  0.2479917413984960  0.6950161409675230  0.5564012385747866
  0.2472504558020868  0.3050292128852730  0.8180799532951517
  0.4931156371754330  0.7109659502426825  0.8121115574930434
  0.4958026860462404  0.3065627448571281  0.5629925289374852
  0.7498373036915250  0.6799999938152539  0.5527221273849687
  0.7475091418207096  0.3179015765003292  0.8109307803113092
 -0.0060010946696416  0.6873920812031049  0.8048142388165971
  0.2446147307426638  0.3520355085573925  0.0631145889976090
 -0.0051923274613202  0.6651380419302153  0.0507611008547361
  0.4976919754952731  0.3539345653081076  0.3120452073303104
  0.2477882044003892  0.6755217503676377  0.3040422413581801
  0.7459656145386790  0.3368632346404900  0.0569664426981353
  0.5003855266324381  0.6472301791616777  0.0548226191129069
  0.9930966353654335  0.2844492858444287  0.3095821705238679
  0.7487230973941976  0.6426673402893353  0.3062728532310122
  0.2444560254684715  0.2667563215064941  0.5674244894523297
 -0.0020026696010808  0.6395442843836929  0.5517956498005976
  0.4990570596737182  0.3287474985018898  0.8102122704912482
  0.2475141442644123  0.6611317751845986  0.8081951089129072
  0.7421371733990556  0.3683576237446565  0.5572100276372494
  0.5069536336939093  0.7153601661406255  0.5533191842528510
  0.9944594446251382  0.3548583005983144  0.8062504965008317
  0.7438424465268946  0.6439157199997797  0.8077767225545326
  0.5047141426837568  0.0861331634658095  0.0752288856354233
  0.2577806898527874  0.9117343013912271  0.0605209765259771
  0.2752518740528906  0.0895176024059839  0.2834464116707708
  0.0000378253017944  0.9022696022041682  0.3162934505751943
 -0.0044722168145394  0.0946935796302430  0.0184622164582447
  0.7400542535922455  0.9127779399107291  0.0428243394372245
  0.7381886053609776  0.0889761758478052  0.3348922007633040
  0.5363325695493593  0.9139668916020978  0.3010551247386117
  0.5440703012578761  0.1001811890407048  0.5716677275976225
  0.2206337760177357  0.8967673331704342  0.5616484604756939
  0.2458080964467078  0.0917805943565013  0.8391838546210071
 -0.0542640263538164  0.9008683570706649  0.8048037433446963
  0.9473159176272234  0.1020599208923803  0.5622011666193703
  0.7693034813505710  0.9076002461205913  0.5353682926733060
  0.7528723488083093  0.0906659682421937  0.8069028084304963
  0.5009964790810528  0.9215892666065453  0.8426316166761858
 
  0.00000000E+00  0.00000000E+00  0.00000000E+00
  0.00000000E+00  0.00000000E+00  0.00000000E+00
  0.00000000E+00  0.00000000E+00  0.00000000E+00
  0.00000000E+00  0.00000000E+00  0.00000000E+00
  0.00000000E+00  0.00000000E+00  0.00000000E+00
  0.00000000E+00  0.00000000E+00  0.00000000E+00
  0.00000000E+00  0.00000000E+00  0.00000000E+00
  0.00000000E+00  0.00000000E+00  0.00000000E+00
  0.00000000E+00  0.00000000E+00  0.00000000E+00
  0.00000000E+00  0.00000000E+00  0.00000000E+00
  0.00000000E+00  0.00000000E+00  0.00000000E+00
  0.00000000E+00  0.00000000E+00  0.00000000E+00
  0.00000000E+00  0.00000000E+00  0.00000000E+00
  0.00000000E+00  0.00000000E+00  0.00000000E+00
  0.00000000E+00  0.00000000E+00  0.00000000E+00
  0.00000000E+00  0.00000000E+00  0.00000000E+00
  0.00000000E+00  0.00000000E+00  0.00000000E+00
  0.00000000E+00  0.00000000E+00  0.00000000E+00
  0.00000000E+00  0.00000000E+00  0.00000000E+00
  0.00000000E+00  0.00000000E+00  0.00000000E+00
  0.00000000E+00  0.00000000E+00  0.00000000E+00
  0.00000000E+00  0.00000000E+00  0.00000000E+00
  0.00000000E+00  0.00000000E+00  0.00000000E+00
  0.00000000E+00  0.00000000E+00  0.00000000E+00
  0.00000000E+00  0.00000000E+00  0.00000000E+00
  0.00000000E+00  0.00000000E+00  0.00000000E+00
  0.00000000E+00  0.00000000E+00  0.00000000E+00
  0.00000000E+00  0.00000000E+00  0.00000000E+00
  0.00000000E+00  0.00000000E+00  0.00000000E+00
  0.00000000E+00  0.00000000E+00  0.00000000E+00
  0.00000000E+00  0.00000000E+00  0.00000000E+00
  0.00000000E+00  0.00000000E+00  0.00000000E+00
  0.00000000E+00  0.00000000E+00  0.00000000E+00
  0.00000000E+00  0.00000000E+00  0.00000000E+00
  0.00000000E+00  0.00000000E+00  0.00000000E+00
  0.00000000E+00  0.00000000E+00  0.00000000E+00
  0.00000000E+00  0.00000000E+00  0.00000000E+00
  0.00000000E+00  0.00000000E+00  0.00000000E+00
  0.00000000E+00  0.00000000E+00  0.00000000E+00
  0.00000000E+00  0.00000000E+00  0.00000000E+00
  0.00000000E+00  0.00000000E+00  0.00000000E+00
  0.00000000E+00  0.00000000E+00  0.00000000E+00
  0.00000000E+00  0.00000000E+00  0.00000000E+00
  0.00000000E+00  0.00000000E+00  0.00000000E+00
  0.00000000E+00  0.00000000E+00  0.00000000E+00
  0.00000000E+00  0.00000000E+00  0.00000000E+00
  0.00000000E+00  0.00000000E+00  0.00000000E+00
  0.00000000E+00  0.00000000E+00  0.00000000E+00
  0.00000000E+00  0.00000000E+00  0.00000000E+00
  0.00000000E+00  0.00000000E+00  0.00000000E+00
  0.00000000E+00  0.00000000E+00  0.00000000E+00
  0.00000000E+00  0.00000000E+00  0.00000000E+00
  0.00000000E+00  0.00000000E+00  0.00000000E+00
  0.00000000E+00  0.00000000E+00  0.00000000E+00
  0.00000000E+00  0.00000000E+00  0.00000000E+00
  0.00000000E+00  0.00000000E+00  0.00000000E+00
  0.00000000E+00  0.00000000E+00  0.00000000E+00
  0.00000000E+00  0.00000000E+00  0.00000000E+00
  0.00000000E+00  0.00000000E+00  0.00000000E+00
  0.00000000E+00  0.00000000E+00  0.00000000E+00
