Li Mg Bi  S  O 
 1.0000000000000000
    11.1784999999999997    0.0000000000000000    0.0000000000000000
     0.0000000000000000    9.5746000000000002    0.0000000000000000
     0.0000000000000000    0.0000000000000000   11.1823999999999995
 Li  Mg  Bi  S   O  
   2   7  16  16  16
Direct
  0.2002013632195191 -0.0346281449735921  0.4461480777433434
  0.5854292335520468  0.9860261963947080  0.4427212303383298
  0.0772747943573074  0.9649396761113803  0.2008569875136636
  0.8593090725578290 -0.0376076052068717  0.4458847374813079
  0.6232273825151662  0.9760792928780321  0.1744538616069982
  0.3515970116184440 -0.0326348023426324  0.9475533891495396
  0.1063035752889511  0.9614323534555960  0.7074536629910596
  0.8583862786339941 -0.0324026204321403  0.9437203030320312
  0.6100734287732467  0.9671846735463706  0.7157333871370136
 -0.0139479426889704  0.2717580006785367  0.0655852280006058
  0.2256083479020233  0.6701144031133012  0.0799364720133187
  0.2318564568084077  0.2803099518621568  0.3154366480253233
  0.4824501930167344  0.6904083802529847  0.3224413828838107
  0.4820664939720500  0.2712147650180276  0.0715320399990476
  0.7263985465791902  0.6612129699784546  0.0721109747768109
  0.7344166043571642  0.2782654273708487  0.3183764224504475
  0.9695976686167908  0.6406324866858158  0.3244539974162415
 -0.0091767386717482  0.2671321763119974  0.5703412706177948
  0.2344411282378013  0.6479150631118200  0.5749614149756903
  0.2396049167950096  0.2705081783705363  0.8198862656153405
  0.4746052481801146  0.6637151399922158  0.8255380070476886
  0.4888646532770680  0.2751388115898153  0.5684299561907670
  0.7287950717342457  0.6618195078955855  0.5767965442285413
  0.7328144126182656  0.2734280224839404  0.8135777522102549
  0.9806982345454563  0.6609608808156776  0.8245986250536471
  0.2389576361349418  0.3154567785964107  0.0739447863197802
 -0.0359126836798934  0.6142530828120628  0.0801686288137524
  0.4798557842969555  0.2870411149298552  0.3206536082204899
  0.2363994009790876  0.7441790922532554  0.3291199199414910
  0.7295481134598961  0.3098810578733631  0.0615425987517589
  0.4735071292214127  0.6339695111565539  0.0769029179312345
  0.9850790994550374  0.3205494305824880  0.3195435479062726
  0.7186271297889668  0.6113694180457725  0.3230832945495346
  0.2389724474806220  0.2938987865877831  0.5666885268722697
 -0.0049836072480761  0.6069567321003113  0.5705852279764868
  0.4814295444050861  0.3170093596910069  0.8208571961338539
  0.2201602525328006  0.6160988830169956  0.8364629798113503
  0.7425009512267872  0.3221458010120223  0.5672038840462709
  0.4802494377311239  0.6326172461398262  0.5788884410726955
  0.9923120758306383  0.3001641897949097  0.8170454668920797
  0.7381936073075054  0.6327635627380910  0.8205901443168582
  0.4867870651103985  0.0535177313837977  0.0601007069208351
  0.2149455634531974  0.8851879902746341  0.0593078138424084
  0.1907861327375701  0.0749440268862944  0.3053995903268819
 -0.0353931474092960  0.8573614309623003  0.3207427590549551
  0.9691806333711287  0.0541061801910051  0.0731291729545447
  0.7379267805859021  0.8804882809344298  0.0627011325575862
  0.7358818365362262  0.0580184822544146  0.3275720392465683
  0.5237505576531735  0.8960089285562546  0.3060850768910004
  0.5260095685764496  0.0684191159822987  0.5877775062715836
  0.2079494380531081  0.8572314861399181  0.5875460758183497
  0.2349016044221596  0.0518190259074423  0.8214844314171171
 -0.0204429648139079  0.8798329551736399  0.8230998930685827
  0.9916830882253709  0.0473875694244730  0.5628943666694382
  0.7252785152271578  0.8818557908867771  0.5602816728245620
  0.7383736866394522  0.0553222384226636  0.8213222746716328
  0.4793426666261774  0.8814170869276094  0.8268777565033194
