Li Mg Bi  S  O 
 1.0000000000000000
    11.1784999999999997    0.0000000000000000    0.0000000000000000
     0.0000000000000000    9.5746000000000002    0.0000000000000000
     0.0000000000000000    0.0000000000000000   11.1823999999999995
 Li  Mg  Bi  S   O  
  12   2  16  16  16
Direct
  0.3595511569091405 -0.0043782995766918  0.4314547331794885
  0.1283588470217320  0.9958522540394225  0.1994048307144558
  0.3709008880518084  0.0028698979197481  0.1736759042744840
  0.6260070655831041  0.9976015893172997  0.4370365012020973
  0.8894934707132346  0.0008070339381751  0.4358611339798282
  0.6229672928009405  1.0026166965179686  0.1967171270355108
  0.8759565893102370  0.0027973368686519  0.1851318056766380
  0.1393399494199187  1.0003248279127910  0.9381766218577942
  0.1203272196211467  1.0024881565476018  0.6779252257453390
  0.8834514177483548  0.0000214443143402  0.9386627876681582
  0.6327286580252943  0.9990086061955468  0.6807090623169815
  0.8765464581674997 -0.0031876892042113  0.6883392903256785
  0.3793667084820371 -0.0007064553018191  0.7006821824054743
  0.6167844875017152  0.9966861909674887  0.9372998396224010
 -0.0004692019729767  0.2972909404926159  0.0626721087770621
  0.2471415518982176  0.7054037071062706  0.0659075298462048
  0.2506386860423665  0.2918964690476540  0.3100851053699498
  0.5002658638878767  0.7046533598399790  0.3141067265256829
  0.5003759417969864  0.2993229345437356  0.0651095324560015
  0.7505723597299088  0.6978952508772872  0.0620865633496276
  0.7497204890434015  0.2958149488941334  0.3129261588992133
  0.9995243659998406  0.7092385750080595  0.3119724311831572
 -0.0022358001510092  0.2924803571137611  0.5620851543736440
  0.2506750848033992  0.6974901453117875  0.5637278885633064
  0.2468019381612431  0.3021475275454794  0.8113263791533827
  0.5004468839827390  0.6897328283572486  0.8126662746409529
  0.4989381152773366  0.3032286782780050  0.5621147669854374
  0.7514453661158943  0.7036563299448672  0.5613106418133794
  0.7502373101263486  0.3009282604499986  0.8124469533471302
  1.0004449719168371  0.7040257757364184  0.8131864731759469
  0.2520787368949932  0.3364987452044736  0.0618838242760354
 -0.0011221143581026  0.6555600021574453  0.0619680713299680
  0.5015360968866560  0.3436817636650099  0.3134833889765973
  0.2512509233748981  0.6644919719489596  0.3144343516042138
  0.7493124388428257  0.3482497860475095  0.0598343500737039
  0.5025282012452507  0.6661670957423651  0.0616588706946284
  0.9995256398462179  0.3352610633607778  0.3117558974502990
  0.7496481049005123  0.6581092601086429  0.3129807229217921
  0.2516986712730970  0.3395515114183311  0.5631180327352823
 -0.0002894763024337  0.6647876301599609  0.5649386993089602
  0.4981928718040073  0.3366003655673925  0.8146099589315192
  0.2528309037033928  0.6614291789742356  0.8149927143445991
  0.7487873543289397  0.3412528307631195  0.5639476861217427
  0.5006748927860991  0.6505083194553474  0.5649109282579319
  0.9998199741085499  0.3448230892809142  0.8132747356100172
  0.7488718860434825  0.6535678391739013  0.8128040417970862
  0.5188339913188803  0.0816785953931868  0.0688588462854335
  0.2356716780448296  0.9183887236907580  0.0737936765690430
  0.2655790545236413  0.0795386299403159  0.2991912778439205
 -0.0134544380791210  0.9215535669055794  0.2990811148316560
  0.9946843496417752  0.0807201381002143  0.0596301186226697
  0.7431907284914215  0.9196203075106341  0.0527837942853804
  0.7483150180233215  0.0784505913278501  0.3108253276643462
  0.5038115560308407  0.9217920409137280  0.3180493045037751
  0.4966191836440199  0.0822916547963346  0.5768957605916513
  0.2710974891255200  0.9126005712149589  0.5798980373909586
  0.2432338054604778  0.0840972748150794  0.7947915180786222
 -0.0023247609200765  0.9214015874352405  0.8137869084456816
  0.9859643811930475  0.0797013014360029  0.5754135699224415
  0.7477524731470121  0.9216773142062082  0.5624617325057806
  0.7403269606302467  0.0788265374246503  0.8199466749680430
  0.5137459259311620  0.9140510737045403  0.8024213185041654
