Li2 Mg7 Bi16 S16 O16                    
   1.00000000000000     
    11.2395774185814439    0.2768784135025316   -0.0419021991211591
     0.2397936630750576    9.7233252561764285   -0.0228005713127408
    -0.0411029224365630   -0.0216519980955974   11.2200985820450327
   Li   Mg   Bi   S    O 
     2     7    16    16    16
Direct
  0.4184548727471502  0.0167792309625198  0.4149527729507380
  0.8907352455594894 -0.0100787916894689  0.9387449959604519
  0.4035406389232797  0.0122310662625483  0.1670589721494907
  0.8847823463280378 -0.0019519028389247  0.4406949056911852
  0.8539813373217149 -0.0091036011612504  0.1818980997992373
  0.1186542444180565 -0.0028496413724113  0.6930231797456334
  0.3844300850617851 -0.0029720221398376  0.7015689460633041
  0.6243188439946709  0.0021365399152984  0.9358573817600908
  0.8531992451134446 -0.0000477239253798  0.6978222167341477
  0.0022059507976366  0.2794568754571586  0.0702806923951730
  0.2572839490021215  0.7270332181881485  0.0659325883623870
  0.2662522150500809  0.3156942248746002  0.3070407188555678
  0.4999216396375939  0.6944804170518636  0.3084439840401438
  0.5037271440924200  0.3151619161470762  0.0650701918530424
  0.7542398019917813  0.6869275526430337  0.0599124616764770
  0.7585486692458897  0.3166922315152436  0.3167074064899078
  0.0021582561913177  0.6783633550414899  0.3059854483995272
  0.0008683919036277  0.3077794704877830  0.5662213313876848
  0.2573406885116798  0.6870449615344810  0.5673284435273345
  0.2493182126071614  0.3125579885223371  0.8114420365298969
  0.5047202983298074  0.6968569135470635  0.8135104537534811
  0.4955443005497945  0.2907394220506317  0.5640699644859768
  0.7557098692149560  0.6947554529549596  0.5565024454430867
  0.7500238889606760  0.3110952768317182  0.8202869332284245
  0.0059208714144734  0.6848724009482553  0.8094582180260704
  0.2628799646980082  0.3431707354151387  0.0622616754349368
 -0.0054149583625886  0.6517373963537876  0.0621123434388697
  0.5138864189589123  0.3562876940769831  0.3148398630023516
  0.2465440449659664  0.6758163834854162  0.3137299302323915
  0.7637466431823843  0.3608951274386698  0.0622034609413429
  0.4978100861339849  0.6451867425377400  0.0623357439119333
  0.0109656942305824  0.3361645644657075  0.3124499887087643
  0.7488152475335236  0.6474225549389351  0.3152809979268433
  0.2615399392927684  0.3647036382664403  0.5639022799221903
 -0.0041798490883337  0.6302896002727388  0.5653412923780272
  0.5104905358472419  0.3418898530999555  0.8120635588625705
  0.2448755950292678  0.6442339356266629  0.8151994038827431
  0.7636647863937420  0.3444446925645087  0.5653019708029906
  0.4976191087643537  0.6621518240661721  0.5672226831340532
  0.0066105676340423  0.3470447994140549  0.8119548631371979
  0.7465424638679139  0.6473622604292564  0.8137516807126238
  0.5215621622651239  0.0996054574746059  0.0577138095579257
  0.2890540677509079  0.9260141971711402  0.0640826819144574
  0.3172713927634317  0.1130934920235304  0.2996483762519976
 -0.0484837767137237  0.8872177096260002  0.3076606386305396
  0.9573467046433997  0.0797189476794365  0.0684680973808757
  0.7568039883155583  0.9070370639673562  0.0437136520691767
  0.7911282164367527  0.1038562794611521  0.3177086832212141
  0.4895996450058864  0.9024250491740630  0.2930232017748073
  0.4646180644179519  0.0856742867766813  0.5686990009947601
  0.2534702430144464  0.8958595010308221  0.6150193345098192
  0.2439192365737777  0.1040906870703962  0.7714614822853167
 -0.0116062738916860  0.9063919851631099  0.7896835346442677
  0.9803014450842190  0.0825797802112802  0.5855112155335516
  0.7896634828359507  0.9040327181029789  0.5610836939276483
  0.7582043485773622  0.0874756424598495  0.8308550630725274
  0.5094797568702251  0.9130105683464705  0.8178910084928565
 
  0.00000000E+00  0.00000000E+00  0.00000000E+00
  0.00000000E+00  0.00000000E+00  0.00000000E+00
  0.00000000E+00  0.00000000E+00  0.00000000E+00
  0.00000000E+00  0.00000000E+00  0.00000000E+00
  0.00000000E+00  0.00000000E+00  0.00000000E+00
  0.00000000E+00  0.00000000E+00  0.00000000E+00
  0.00000000E+00  0.00000000E+00  0.00000000E+00
  0.00000000E+00  0.00000000E+00  0.00000000E+00
  0.00000000E+00  0.00000000E+00  0.00000000E+00
  0.00000000E+00  0.00000000E+00  0.00000000E+00
  0.00000000E+00  0.00000000E+00  0.00000000E+00
  0.00000000E+00  0.00000000E+00  0.00000000E+00
  0.00000000E+00  0.00000000E+00  0.00000000E+00
  0.00000000E+00  0.00000000E+00  0.00000000E+00
  0.00000000E+00  0.00000000E+00  0.00000000E+00
  0.00000000E+00  0.00000000E+00  0.00000000E+00
  0.00000000E+00  0.00000000E+00  0.00000000E+00
  0.00000000E+00  0.00000000E+00  0.00000000E+00
  0.00000000E+00  0.00000000E+00  0.00000000E+00
  0.00000000E+00  0.00000000E+00  0.00000000E+00
  0.00000000E+00  0.00000000E+00  0.00000000E+00
  0.00000000E+00  0.00000000E+00  0.00000000E+00
  0.00000000E+00  0.00000000E+00  0.00000000E+00
  0.00000000E+00  0.00000000E+00  0.00000000E+00
  0.00000000E+00  0.00000000E+00  0.00000000E+00
  0.00000000E+00  0.00000000E+00  0.00000000E+00
  0.00000000E+00  0.00000000E+00  0.00000000E+00
  0.00000000E+00  0.00000000E+00  0.00000000E+00
  0.00000000E+00  0.00000000E+00  0.00000000E+00
  0.00000000E+00  0.00000000E+00  0.00000000E+00
  0.00000000E+00  0.00000000E+00  0.00000000E+00
  0.00000000E+00  0.00000000E+00  0.00000000E+00
  0.00000000E+00  0.00000000E+00  0.00000000E+00
  0.00000000E+00  0.00000000E+00  0.00000000E+00
  0.00000000E+00  0.00000000E+00  0.00000000E+00
  0.00000000E+00  0.00000000E+00  0.00000000E+00
  0.00000000E+00  0.00000000E+00  0.00000000E+00
  0.00000000E+00  0.00000000E+00  0.00000000E+00
  0.00000000E+00  0.00000000E+00  0.00000000E+00
  0.00000000E+00  0.00000000E+00  0.00000000E+00
  0.00000000E+00  0.00000000E+00  0.00000000E+00
  0.00000000E+00  0.00000000E+00  0.00000000E+00
  0.00000000E+00  0.00000000E+00  0.00000000E+00
  0.00000000E+00  0.00000000E+00  0.00000000E+00
  0.00000000E+00  0.00000000E+00  0.00000000E+00
  0.00000000E+00  0.00000000E+00  0.00000000E+00
  0.00000000E+00  0.00000000E+00  0.00000000E+00
  0.00000000E+00  0.00000000E+00  0.00000000E+00
  0.00000000E+00  0.00000000E+00  0.00000000E+00
  0.00000000E+00  0.00000000E+00  0.00000000E+00
  0.00000000E+00  0.00000000E+00  0.00000000E+00
  0.00000000E+00  0.00000000E+00  0.00000000E+00
  0.00000000E+00  0.00000000E+00  0.00000000E+00
  0.00000000E+00  0.00000000E+00  0.00000000E+00
  0.00000000E+00  0.00000000E+00  0.00000000E+00
  0.00000000E+00  0.00000000E+00  0.00000000E+00
  0.00000000E+00  0.00000000E+00  0.00000000E+00
