Li6 Mg5 Bi16 S16 O16                    
   1.00000000000000     
    11.2783197824352150   -0.0081640254516644    0.0264483656449019
    -0.0070566984117095    9.6883455207894453    0.0009899776752426
     0.0263478938448973    0.0011937406769613   11.1978869472605780
   Li   Mg   Bi   S    O 
     6     5    16    16    16
Direct
  0.2617018250317041 -0.0092611710893398  0.4473400868112630
  0.2259442685052356  0.9892601795303273  0.1930929587216368
  0.6239577762788524 -0.0051705359694858  0.4353573441643827
  0.5253513090555558  0.9870005945290677  0.1804552099728600
  0.1261045301688143 -0.0046016122597090  0.9396151632231063
  0.4875160517480642 -0.0077454145164516  0.9260602151565545
  0.8827243189510982 -0.0038417978168294  0.4550223485097196
  0.8752098051348188 -0.0017392960091872  0.1876726817437603
  0.0965884351134460 -0.0025842317493182  0.6889500853542782
  0.8674189994375142 -0.0037610439257573  0.9202443987401637
  0.6538333206685385 -0.0032350373965868  0.6860859092818290
 -0.0044171860524657  0.3102816897952094  0.0607746058441131
  0.2493120880480016  0.6975321156431749  0.0610860933757507
  0.2551032880122034  0.3105453052395345  0.3133868618377726
  0.5005101058407577  0.6969539584653609  0.3142841704056090
  0.4949390343334346  0.3098392692741925  0.0620314472581143
  0.7496288910249609  0.6871796720716701  0.0610190349212621
  0.7546012666670120  0.3098716583890223  0.3144132480780051
  0.0003419499081402  0.6874692434220038  0.3143608222203031
  0.0029107291256152  0.3081958420615240  0.5616297269031332
  0.2425640020065555  0.6935827168275319  0.5691544353415977
  0.2405817794360214  0.3000751148738002  0.8117828752167233
  0.5073955111779256  0.6929760179499662  0.8063712506346346
  0.5095124857688474  0.2987721356892833  0.5634260815626203
  0.7474254857401746  0.6840627609973478  0.5569725636432983
  0.7471467471197456  0.3079544557802729  0.8136083253482327
  0.0023990078400004  0.6845490458211260  0.8182537061279719
  0.2460722335444559  0.3365862819955393  0.0633776932780709
 -0.0021926400870313  0.6366107668036701  0.0632009088051337
  0.5035329246912245  0.3363379388516694  0.3118834767197805
  0.2492182712138618  0.7331006842548684  0.3156687798479318
  0.7488955572562621  0.3480896467572325  0.0628626098783043
  0.5009244762809728  0.7321141117314123  0.0597663788171893
  0.0006919140322978  0.3487408939936301  0.3123783354807201
  0.7521241034811561  0.6361829955167867  0.3120754502456927
  0.2456388809005718  0.3386248535086681  0.5640706235812252
 -0.0023678116310760  0.6486259788733613  0.5624130507515905
  0.5037324183496312  0.3371721254643493  0.8111533703105730
  0.2490325189879665  0.6494765479108632  0.8139901592135019
  0.7508785498586327  0.3623594675192190  0.5622576947473116
  0.5010721372346222  0.6488339591459583  0.5614584826857695
  0.9985413985701487  0.3626182017892345  0.8130288912100095
  0.7524488672750459  0.6484710209104096  0.8129494110919401
  0.4980816572590579  0.1025353805213751  0.0571562322299477
  0.2197026123329491  0.9025959808903566  0.0492596740488714
  0.2510999165128445  0.1033026351751740  0.3178559881095122
 -0.0406445102095286  0.8977678130010597  0.3171647284089290
  0.9654232405244223  0.0930054691985883  0.0504405826026530
  0.7907127049245135  0.8976893803582436  0.0582322629468387
  0.7849008409026615  0.0927566387630015  0.3247696513063046
  0.5307863692972493  0.9020555850775517  0.3252665265926653
  0.5589077921943988  0.0967325571932307  0.5666459827453575
  0.2116643740691594  0.9012801971629769  0.5847877169872012
  0.1913486461796884  0.0977818928292782  0.8084565587640433
 -0.0001361737068863  0.9060059987948199  0.8245031290521713
 -0.0089816109837053  0.0911259671881329  0.5685828858351467
  0.7502774570267529  0.9055522870932016  0.5506682825027112
  0.7592025165791565  0.0909288968470037  0.8066121739983536
  0.5384945410479548  0.9006662092513639  0.7903406568058849
 
  0.00000000E+00  0.00000000E+00  0.00000000E+00
  0.00000000E+00  0.00000000E+00  0.00000000E+00
  0.00000000E+00  0.00000000E+00  0.00000000E+00
  0.00000000E+00  0.00000000E+00  0.00000000E+00
  0.00000000E+00  0.00000000E+00  0.00000000E+00
  0.00000000E+00  0.00000000E+00  0.00000000E+00
  0.00000000E+00  0.00000000E+00  0.00000000E+00
  0.00000000E+00  0.00000000E+00  0.00000000E+00
  0.00000000E+00  0.00000000E+00  0.00000000E+00
  0.00000000E+00  0.00000000E+00  0.00000000E+00
  0.00000000E+00  0.00000000E+00  0.00000000E+00
  0.00000000E+00  0.00000000E+00  0.00000000E+00
  0.00000000E+00  0.00000000E+00  0.00000000E+00
  0.00000000E+00  0.00000000E+00  0.00000000E+00
  0.00000000E+00  0.00000000E+00  0.00000000E+00
  0.00000000E+00  0.00000000E+00  0.00000000E+00
  0.00000000E+00  0.00000000E+00  0.00000000E+00
  0.00000000E+00  0.00000000E+00  0.00000000E+00
  0.00000000E+00  0.00000000E+00  0.00000000E+00
  0.00000000E+00  0.00000000E+00  0.00000000E+00
  0.00000000E+00  0.00000000E+00  0.00000000E+00
  0.00000000E+00  0.00000000E+00  0.00000000E+00
  0.00000000E+00  0.00000000E+00  0.00000000E+00
  0.00000000E+00  0.00000000E+00  0.00000000E+00
  0.00000000E+00  0.00000000E+00  0.00000000E+00
  0.00000000E+00  0.00000000E+00  0.00000000E+00
  0.00000000E+00  0.00000000E+00  0.00000000E+00
  0.00000000E+00  0.00000000E+00  0.00000000E+00
  0.00000000E+00  0.00000000E+00  0.00000000E+00
  0.00000000E+00  0.00000000E+00  0.00000000E+00
  0.00000000E+00  0.00000000E+00  0.00000000E+00
  0.00000000E+00  0.00000000E+00  0.00000000E+00
  0.00000000E+00  0.00000000E+00  0.00000000E+00
  0.00000000E+00  0.00000000E+00  0.00000000E+00
  0.00000000E+00  0.00000000E+00  0.00000000E+00
  0.00000000E+00  0.00000000E+00  0.00000000E+00
  0.00000000E+00  0.00000000E+00  0.00000000E+00
  0.00000000E+00  0.00000000E+00  0.00000000E+00
  0.00000000E+00  0.00000000E+00  0.00000000E+00
  0.00000000E+00  0.00000000E+00  0.00000000E+00
  0.00000000E+00  0.00000000E+00  0.00000000E+00
  0.00000000E+00  0.00000000E+00  0.00000000E+00
  0.00000000E+00  0.00000000E+00  0.00000000E+00
  0.00000000E+00  0.00000000E+00  0.00000000E+00
  0.00000000E+00  0.00000000E+00  0.00000000E+00
  0.00000000E+00  0.00000000E+00  0.00000000E+00
  0.00000000E+00  0.00000000E+00  0.00000000E+00
  0.00000000E+00  0.00000000E+00  0.00000000E+00
  0.00000000E+00  0.00000000E+00  0.00000000E+00
  0.00000000E+00  0.00000000E+00  0.00000000E+00
  0.00000000E+00  0.00000000E+00  0.00000000E+00
  0.00000000E+00  0.00000000E+00  0.00000000E+00
  0.00000000E+00  0.00000000E+00  0.00000000E+00
  0.00000000E+00  0.00000000E+00  0.00000000E+00
  0.00000000E+00  0.00000000E+00  0.00000000E+00
  0.00000000E+00  0.00000000E+00  0.00000000E+00
  0.00000000E+00  0.00000000E+00  0.00000000E+00
  0.00000000E+00  0.00000000E+00  0.00000000E+00
  0.00000000E+00  0.00000000E+00  0.00000000E+00
