Li14 Mg1 Bi16 S16 O16                   
   1.00000000000000     
    11.1349997885234107    0.0002079204005876    0.0001138440689822
     0.0001577809802458    9.4087213943831092   -0.0007274741468476
     0.0001139928936241   -0.0008512116551413   11.1262503546537754
   Li   Mg   Bi   S    O 
    14     1    16    16    16
Direct
  0.3593923114268812  0.0001161070284364  0.4377276994377858
  0.1117032273033185  0.0127266086880483  0.2182338901831443
  0.3741939833084250 -0.0029887160530873  0.1927442728362200
  0.6244869475905204 -0.0000047035990186  0.4376639095760600
  0.8837772979679910 -0.0000647206754937  0.4376449007536112
  0.6246692093030091  0.9996853589767392  0.1905277336266845
  0.8697079287936058 -0.0002962532614377  0.1875390677294572
  0.1218350092097042 -0.0000476313530052  0.9376314074806913
  0.1116391511693831  0.9872526940342300  0.6569082960765018
  0.3741821719082303  0.0028641623723088  0.6825800611179332
  0.6340909795715679  0.0000952808062465  0.9376837378798490
  0.8800215606880650  0.0000161883362765  0.9376197877581003
  0.6246481561708118  0.0003192225079474  0.6848382097985301
  0.8697323350699291  0.0003414709491799  0.6877126329199829
  0.3787897783697070 -0.0000099761163439  0.9375905694246435
  0.0007003578338497  0.3003654951673754  0.0624592422701744
  0.2513086287194226  0.6907183812511364  0.0622919088590317
  0.2513219445454999  0.2995163795559845  0.3128979841945329
  0.5005045645840130  0.6997603875464981  0.3129269934421990
  0.5016163287919050  0.3081816980805275  0.0635172790437869
  0.7523426549529684  0.7000244403457824  0.0633416121586509
  0.7504939496641405  0.3005064179131303  0.3130500345156840
 -0.0017789946654294  0.7029705154956321  0.3124533181307133
 -0.0017773767662263  0.2970142104688652  0.5624279270651156
  0.2513239621864676  0.7005016576572274  0.5620187561647620
  0.2513373966088382  0.3091957536874665  0.8126037000478146
  0.5016151854043891  0.6918341192258212  0.8114211035820541
  0.5005018059553712  0.3002118089529318  0.5620302382743708
  0.7504942677321642  0.6995242433808040  0.5619081704610609
  0.7523637969779009  0.3000449557309975  0.8116037403379457
  0.0007063701929108  0.6996513565796197  0.8124228951774302
  0.2526139658880993  0.3482032908554846  0.0619234508827220
  0.0011676470800947  0.6553764028086047  0.0623132514317015
  0.5012495573136717  0.3465786543786624  0.3122504506112247
  0.2516290289865745  0.6675871348332661  0.3114615821454191
  0.7511528715454833  0.3432384904471713  0.0617623930182156
  0.5014869657657257  0.6524792895322370  0.0612657993481526
  0.0011834598263028  0.3342477835143035  0.3111260322090188
  0.7503516462962838  0.6511429118505906  0.3119643450572354
  0.2516515323496838  0.3323970664211592  0.5633049554309731
  0.0011797499093430  0.6658283342351955  0.5636365358960169
  0.5015124469365668  0.3475542728670692  0.8134925581797634
  0.2526105046613593  0.6517007300354818  0.8128500466211191
  0.7503720286923869  0.3488940490383504  0.5627834054765781
  0.5012421171880745  0.6533884028779231  0.5625118378619138
  0.0011956486390466  0.3446814883076289  0.8124426083385770
  0.7511515484550793  0.6567976350693224  0.8129987048041233
  0.4975627354644229  0.0813943256994791  0.0563205340185372
 -0.0190428605736703  0.9191741647465399  0.3021264891839955
  0.2621999619574719  0.9143060112867057  0.0516054021181646
  0.2602972018163401  0.0821606772059444  0.2998518019588176
  0.0013418306113638  0.0788216385751879  0.0619228651111575
  0.5017156633330920  0.9212075875224609  0.3104013699049636
  0.7492104933193741  0.9222891196882377  0.0624735868797565
  0.7451742042228285  0.0795861434478515  0.3120395994026462
  0.5016688650406034  0.0787604203045213  0.5647584061339258
  0.0013523402612615  0.9211994286525133  0.8131600620275672
  0.2602932261465204  0.9178377526187845  0.5753340769326921
  0.2622720635958291  0.0856392056637834  0.8234849281406832
  0.9809358268805146  0.0808306667067933  0.5729851158317264
  0.4975585353562141  0.9186193948193365  0.8188226953984642
  0.7451709967240822  0.9204421666555165  0.5631712951608883
  0.7492033057406384  0.0777784456530644  0.8127227341587882
 
  0.00000000E+00  0.00000000E+00  0.00000000E+00
  0.00000000E+00  0.00000000E+00  0.00000000E+00
  0.00000000E+00  0.00000000E+00  0.00000000E+00
  0.00000000E+00  0.00000000E+00  0.00000000E+00
  0.00000000E+00  0.00000000E+00  0.00000000E+00
  0.00000000E+00  0.00000000E+00  0.00000000E+00
  0.00000000E+00  0.00000000E+00  0.00000000E+00
  0.00000000E+00  0.00000000E+00  0.00000000E+00
  0.00000000E+00  0.00000000E+00  0.00000000E+00
  0.00000000E+00  0.00000000E+00  0.00000000E+00
  0.00000000E+00  0.00000000E+00  0.00000000E+00
  0.00000000E+00  0.00000000E+00  0.00000000E+00
  0.00000000E+00  0.00000000E+00  0.00000000E+00
  0.00000000E+00  0.00000000E+00  0.00000000E+00
  0.00000000E+00  0.00000000E+00  0.00000000E+00
  0.00000000E+00  0.00000000E+00  0.00000000E+00
  0.00000000E+00  0.00000000E+00  0.00000000E+00
  0.00000000E+00  0.00000000E+00  0.00000000E+00
  0.00000000E+00  0.00000000E+00  0.00000000E+00
  0.00000000E+00  0.00000000E+00  0.00000000E+00
  0.00000000E+00  0.00000000E+00  0.00000000E+00
  0.00000000E+00  0.00000000E+00  0.00000000E+00
  0.00000000E+00  0.00000000E+00  0.00000000E+00
  0.00000000E+00  0.00000000E+00  0.00000000E+00
  0.00000000E+00  0.00000000E+00  0.00000000E+00
  0.00000000E+00  0.00000000E+00  0.00000000E+00
  0.00000000E+00  0.00000000E+00  0.00000000E+00
  0.00000000E+00  0.00000000E+00  0.00000000E+00
  0.00000000E+00  0.00000000E+00  0.00000000E+00
  0.00000000E+00  0.00000000E+00  0.00000000E+00
  0.00000000E+00  0.00000000E+00  0.00000000E+00
  0.00000000E+00  0.00000000E+00  0.00000000E+00
  0.00000000E+00  0.00000000E+00  0.00000000E+00
  0.00000000E+00  0.00000000E+00  0.00000000E+00
  0.00000000E+00  0.00000000E+00  0.00000000E+00
  0.00000000E+00  0.00000000E+00  0.00000000E+00
  0.00000000E+00  0.00000000E+00  0.00000000E+00
  0.00000000E+00  0.00000000E+00  0.00000000E+00
  0.00000000E+00  0.00000000E+00  0.00000000E+00
  0.00000000E+00  0.00000000E+00  0.00000000E+00
  0.00000000E+00  0.00000000E+00  0.00000000E+00
  0.00000000E+00  0.00000000E+00  0.00000000E+00
  0.00000000E+00  0.00000000E+00  0.00000000E+00
  0.00000000E+00  0.00000000E+00  0.00000000E+00
  0.00000000E+00  0.00000000E+00  0.00000000E+00
  0.00000000E+00  0.00000000E+00  0.00000000E+00
  0.00000000E+00  0.00000000E+00  0.00000000E+00
  0.00000000E+00  0.00000000E+00  0.00000000E+00
  0.00000000E+00  0.00000000E+00  0.00000000E+00
  0.00000000E+00  0.00000000E+00  0.00000000E+00
  0.00000000E+00  0.00000000E+00  0.00000000E+00
  0.00000000E+00  0.00000000E+00  0.00000000E+00
  0.00000000E+00  0.00000000E+00  0.00000000E+00
  0.00000000E+00  0.00000000E+00  0.00000000E+00
  0.00000000E+00  0.00000000E+00  0.00000000E+00
  0.00000000E+00  0.00000000E+00  0.00000000E+00
  0.00000000E+00  0.00000000E+00  0.00000000E+00
  0.00000000E+00  0.00000000E+00  0.00000000E+00
  0.00000000E+00  0.00000000E+00  0.00000000E+00
  0.00000000E+00  0.00000000E+00  0.00000000E+00
  0.00000000E+00  0.00000000E+00  0.00000000E+00
  0.00000000E+00  0.00000000E+00  0.00000000E+00
  0.00000000E+00  0.00000000E+00  0.00000000E+00
