Li Mg Bi  S  O 
 1.0000000000000000
    11.1784999999999997    0.0000000000000000    0.0000000000000000
     0.0000000000000000    9.5746000000000002    0.0000000000000000
     0.0000000000000000    0.0000000000000000   11.1823999999999995
 Li  Mg  Bi  S   O  
  12   2  16  16  16
Direct
  0.3606644261297502 -0.0010870059482439  0.4370128715289784
  0.3976296058283048  0.0111013194423074  0.1946902412091573
  0.6254846593253007  0.9998469350671859  0.4288042790572704
  0.8915654480385881  0.0042894741342193  0.4357663555657858
  0.8487671025733382 -0.0124901055090141  0.1957764724004899
  0.1251381751707531  1.0006730994019246  0.9320741353898955
  0.3635335296682936  0.0042003965543359  0.9404703021969172
  0.1248421717871290  1.0012512168122332  0.6699889766369583
  0.3784719178303170  0.0026112291981378  0.6869142501119818
  0.8837554786164213 -0.0020987603967400  0.9419252514237550
  0.6250387207147835  1.0002129419678549  0.6812664490115943
  0.8714610357634918 -0.0014421895308092  0.6876309462133705
  0.1243816335595322  1.0000880030926629  0.1906911106563519
  0.6236698677734049  1.0003692068659620  0.9440752263521717
  0.0016401784485822  0.3052862397200433  0.0627580281687781
  0.2472586179982942  0.6957725826521122  0.0628027124513804
  0.2512881271149985  0.3030639722980252  0.3108366345708024
  0.4986873457051774  0.7090949217277289  0.3175781660575830
  0.4994517926843887  0.3047800665071845  0.0611089093615237
  0.7493578780026416  0.6980753386339665  0.0617122048766699
  0.7495683020838546  0.2912755691613341  0.3169631130893669
  0.9980115983494143  0.6966386743296528  0.3104287442463903
 -0.0022004411068354  0.2927609011226134  0.5639912417469867
  0.2506394528514685  0.7094353664842998  0.5642454035931882
  0.2490907846607879  0.2966648549616375  0.8111383028020179
  0.4998029936109595  0.6966001151112412  0.8123573526876650
  0.4993195102874559  0.2978314054934290  0.5629270890027190
  0.7498221158843903  0.7031782501332607  0.5628077382305798
  0.7493688295559718  0.3033872887792844  0.8125648699718580
  0.9997832934001673  0.7050682520492066  0.8117192996001060
  0.2506581679749013  0.3530889526666928  0.0640239749061661
 -0.0016980467800005  0.6484989319142638  0.0628182068723356
  0.5012999759544342  0.3347177129478522  0.3118056150173912
  0.2467635455508864  0.6627646141863207  0.3117375638920823
  0.7499197047415972  0.3336048029509661  0.0621573728747724
  0.4992417184452744  0.6678557572680683  0.0633533663796877
  1.0011974803972146  0.3360932162933426  0.3128622658276017
  0.7501640467247905  0.6651308576547841  0.3121161838235428
  0.2516920141311093  0.3324621152336298  0.5613182517862692
 -0.0007197829504534  0.6661796829070784  0.5638476325071230
  0.5000511399122968  0.3501212195220556  0.8147652914826913
  0.2491181172770716  0.6570423692150335  0.8143743935755784
  0.7492974487509694  0.3481635701411635  0.5650165718579946
  0.4988997569822258  0.6521275697276520  0.5639015378586545
  1.0005944040652806  0.3433198259843174  0.8136220929426798
  0.7484268796110286  0.6507047377336274  0.8143147330384148
  0.4906107429858960  0.0860826801913712  0.0427242177974516
  0.2374210195061682  0.9176217249626000  0.0635630507891364
  0.2569487172874045  0.0862981178554525  0.2883151829121630
 -0.0075955824700633  0.9129930184289992  0.2877750427968712
  1.0121737813630576  0.0843968702790466  0.0632691355284719
  0.7574016254326494  0.9164970482018975  0.0435011748020489
  0.7635499205087551  0.0783441805332640  0.3304005184580918
  0.4854043380305982  0.9219384776177728  0.3307253793070646
  0.5025296662962834  0.0810460864662764  0.5702335871556826
  0.2633990331489021  0.9224922775491965  0.5757831378343059
  0.2512687714121805  0.0788041395615588  0.8158366609150026
 -0.0021156595514849  0.9226681123849354  0.8164390126723681
  0.9864053867668846  0.0795802572002783  0.5754754328738990
  0.7471502656845753  0.9195255525164632  0.5699460536016020
  0.7394367469460066  0.0819533381866232  0.8194033092849442
  0.5091850145916234  0.9180028609486448  0.8195242834476059
