Li14 Mg1 Bi16 S16 O16                   
   1.00000000000000     
    11.1364780015350071    0.0001864279774977   -0.0001525494872473
     0.0001398808743940    9.4089384515045484    0.0003933291953700
    -0.0001532399342342    0.0004229843556404   11.1282501922539083
   Li   Mg   Bi   S    O 
    14     1    16    16    16
Direct
  0.3656641206623457  0.0000672355575793  0.4376467475179496
  0.1376190843563526  0.9880005736602248  0.2173356885116992
  0.3801810126592228  0.0001643929907327  0.1874719493002442
  0.6253222866294716  0.0000074897567860  0.4376599481267108
  0.8905575226987372 -0.0001020112244600  0.4377050844670515
  0.6251900888854809  0.0004215201534559  0.1906612862162533
  0.8754484771294866  0.0030438474060013  0.1925809983798382
  0.1282324971343331  0.0000543352238016  0.9376130721139486
  0.3700323833182331 -0.0000125071159229  0.9376142396911437
  0.1376792317214490  0.0120378303439437  0.6577367221009207
  0.3801671136700432 -0.0001960374353614  0.6877633290436401
  0.6159365032830775 -0.0000714167812031  0.9376631346388499
  0.6252223212971925  0.9995805312136445  0.6846821136753117
  0.8754714478646513 -0.0029334185990145  0.6827084984642473
  0.8714254223574692  0.0000160612401146  0.9375956678157810
 -0.0011581923117628  0.3093069571564024  0.0623331655686556
  0.2493579559597872  0.6996500152791637  0.0625134292624268
  0.2517976498181900  0.2969497089304341  0.3123979732235206
  0.4994973305982224  0.6994436608158391  0.3130883999007821
  0.4976776596324259  0.2999035965148230  0.0633890715804316
  0.7485735575052022  0.6919037641029833  0.0635638143497410
  0.7494918026063684  0.3002778121594034  0.3129818521750133
 -0.0012557330243593  0.7008650704577677  0.3128450104908519
 -0.0012535878045937  0.2991326296378287  0.5620758076906759
  0.2518087992776335  0.7030624306141537  0.5624920418837552
  0.2493508466868689  0.3003325880072689  0.8123794097276118
  0.4976624470399283  0.7000561478290827  0.8115643177532142
  0.4995037171950433  0.3005355283032608  0.5618742655349498
  0.7494965299108233  0.6997587157283827  0.5619774012996728
  0.7485688941196740  0.3080929440589220  0.8113899486528090
 -0.0011845666658083  0.6907767347357036  0.8125710601366926
  0.2489314799102937  0.3448373250808514  0.0622690776567859
 -0.0025332462568159  0.6516615629726288  0.0619654620586359
  0.4997310586126256  0.3489156122140912  0.3118918012978885
  0.2489065577999664  0.6654952730532726  0.3111996421852311
  0.7485423123350754  0.3474031748218424  0.0612881287676058
  0.4990089589730448  0.6569383666129064  0.0617216738725876
  0.9984337541862293  0.3325508568541657  0.3114960549787511
  0.7489163556565938  0.6533827293767208  0.3121818713370229
  0.2489140939951993  0.3344264581961847  0.5635974652155704
 -0.0015860718981613  0.6674779040047744  0.5633049287386530
  0.4990089574727753  0.3430442362609523  0.8130700183303854
  0.2489007010965590  0.6551356160182069  0.8125249091211009
  0.7489249614265765  0.3466533164773125  0.5626172443913235
  0.4997174149689804  0.6510550370378168  0.5628885537222315
  0.9974650166553247  0.3484254089611326  0.8128403364331810
  0.7485152739409396  0.6525917695111412  0.8135058242168296
  0.5008392391147509  0.0776139696351925  0.0624896280967588
 -0.0105338158127495  0.9181453176110508  0.2996643034617012
  0.2487083979379519  0.9211894733480576  0.0617248101191998
  0.2687342878077015  0.0807728853705019  0.3018285397610230
  0.9880962803901812  0.0855790682042356  0.0517094507864461
  0.5047467692901416  0.9203740696006064  0.3119836553836399
  0.7525926606491757  0.9187002576359757  0.0564025164051076
  0.7481684187353488  0.0788615426235733  0.3103138690855639
  0.5047534683508333  0.0796058923255900  0.5632094633088919
 -0.0119738672731913  0.9144848034217599  0.8233483249268246
  0.2687612649020065  0.9192220312453555  0.5732695206146549
  0.2487059442330074  0.0787945200539254  0.8133465082422892
  0.9894721278303626  0.0818752883340532  0.5755005252756427
  0.5008603024518973  0.9223459118736068  0.8126947160701732
  0.7482171741688746  0.9211774815697802  0.5648289108944342
  0.7525791441373071  0.0813061089709908  0.8187368159495244
 
  0.00000000E+00  0.00000000E+00  0.00000000E+00
  0.00000000E+00  0.00000000E+00  0.00000000E+00
  0.00000000E+00  0.00000000E+00  0.00000000E+00
  0.00000000E+00  0.00000000E+00  0.00000000E+00
  0.00000000E+00  0.00000000E+00  0.00000000E+00
  0.00000000E+00  0.00000000E+00  0.00000000E+00
  0.00000000E+00  0.00000000E+00  0.00000000E+00
  0.00000000E+00  0.00000000E+00  0.00000000E+00
  0.00000000E+00  0.00000000E+00  0.00000000E+00
  0.00000000E+00  0.00000000E+00  0.00000000E+00
  0.00000000E+00  0.00000000E+00  0.00000000E+00
  0.00000000E+00  0.00000000E+00  0.00000000E+00
  0.00000000E+00  0.00000000E+00  0.00000000E+00
  0.00000000E+00  0.00000000E+00  0.00000000E+00
  0.00000000E+00  0.00000000E+00  0.00000000E+00
  0.00000000E+00  0.00000000E+00  0.00000000E+00
  0.00000000E+00  0.00000000E+00  0.00000000E+00
  0.00000000E+00  0.00000000E+00  0.00000000E+00
  0.00000000E+00  0.00000000E+00  0.00000000E+00
  0.00000000E+00  0.00000000E+00  0.00000000E+00
  0.00000000E+00  0.00000000E+00  0.00000000E+00
  0.00000000E+00  0.00000000E+00  0.00000000E+00
  0.00000000E+00  0.00000000E+00  0.00000000E+00
  0.00000000E+00  0.00000000E+00  0.00000000E+00
  0.00000000E+00  0.00000000E+00  0.00000000E+00
  0.00000000E+00  0.00000000E+00  0.00000000E+00
  0.00000000E+00  0.00000000E+00  0.00000000E+00
  0.00000000E+00  0.00000000E+00  0.00000000E+00
  0.00000000E+00  0.00000000E+00  0.00000000E+00
  0.00000000E+00  0.00000000E+00  0.00000000E+00
  0.00000000E+00  0.00000000E+00  0.00000000E+00
  0.00000000E+00  0.00000000E+00  0.00000000E+00
  0.00000000E+00  0.00000000E+00  0.00000000E+00
  0.00000000E+00  0.00000000E+00  0.00000000E+00
  0.00000000E+00  0.00000000E+00  0.00000000E+00
  0.00000000E+00  0.00000000E+00  0.00000000E+00
  0.00000000E+00  0.00000000E+00  0.00000000E+00
  0.00000000E+00  0.00000000E+00  0.00000000E+00
  0.00000000E+00  0.00000000E+00  0.00000000E+00
  0.00000000E+00  0.00000000E+00  0.00000000E+00
  0.00000000E+00  0.00000000E+00  0.00000000E+00
  0.00000000E+00  0.00000000E+00  0.00000000E+00
  0.00000000E+00  0.00000000E+00  0.00000000E+00
  0.00000000E+00  0.00000000E+00  0.00000000E+00
  0.00000000E+00  0.00000000E+00  0.00000000E+00
  0.00000000E+00  0.00000000E+00  0.00000000E+00
  0.00000000E+00  0.00000000E+00  0.00000000E+00
  0.00000000E+00  0.00000000E+00  0.00000000E+00
  0.00000000E+00  0.00000000E+00  0.00000000E+00
  0.00000000E+00  0.00000000E+00  0.00000000E+00
  0.00000000E+00  0.00000000E+00  0.00000000E+00
  0.00000000E+00  0.00000000E+00  0.00000000E+00
  0.00000000E+00  0.00000000E+00  0.00000000E+00
  0.00000000E+00  0.00000000E+00  0.00000000E+00
  0.00000000E+00  0.00000000E+00  0.00000000E+00
  0.00000000E+00  0.00000000E+00  0.00000000E+00
  0.00000000E+00  0.00000000E+00  0.00000000E+00
  0.00000000E+00  0.00000000E+00  0.00000000E+00
  0.00000000E+00  0.00000000E+00  0.00000000E+00
  0.00000000E+00  0.00000000E+00  0.00000000E+00
  0.00000000E+00  0.00000000E+00  0.00000000E+00
  0.00000000E+00  0.00000000E+00  0.00000000E+00
  0.00000000E+00  0.00000000E+00  0.00000000E+00
