Li4 Mg6 Bi16 S16 O16                    
   1.00000000000000     
    11.2305188062918013   -0.0550816793515863    0.1022007033797749
    -0.0480881242124276    9.6422885399451790    0.0469563321184029
     0.1022988163687885    0.0559387271626421   11.2348252127544637
   Li   Mg   Bi   S    O 
     4     6    16    16    16
Direct
  0.2469048420308804 -0.0292405729070617  0.2053447369886351
  0.5124820281256351  0.0163081681055808  0.4325117640139348
  0.5906307724553032 -0.0328145363828191  0.1429064345882275
  0.1537243363052859  0.0418443314710095  0.4769942540475761
  0.8651405122599597  0.0001056439246528  0.4548230549038098
  0.8799681189383326 -0.0014852883322439  0.1922123840758004
  0.1184772367818129 -0.0020800969811226  0.9489796988846363
  0.3869103510789354 -0.0046250845570880  0.9259121255744462
  0.8513610447488273 -0.0066458260971533  0.9287524408802637
  0.6331549784206021 -0.0030297099526759  0.6998262094534272
 -0.0032400641270346  0.3121297200620625  0.0666505062220590
  0.2519445185666628  0.6810156145321020  0.0625180890404393
  0.2474173643231566  0.3068587010631000  0.3188921571185086
  0.5020883395393533  0.6972840789368979  0.3140761523812665
  0.4946326197934093  0.2919081049524987  0.0687941801290398
  0.7527888108545931  0.6831524710696997  0.0713280157377700
  0.7505765683907315  0.3128369721058153  0.3191785007815523
 -0.0006597812321132  0.6865744022436179  0.3230633208582275
  0.0007709992073034  0.3074088818909378  0.5614753262352727
  0.2535064096645823  0.7284890382365341  0.5637161826727194
  0.2485042849335986  0.3089891514696311  0.8161781211997883
  0.5000049450885058  0.6889985632779634  0.8121389968706326
  0.5019393526256932  0.3047864988557731  0.5702840053423658
  0.7509963457044739  0.6938690874761334  0.5681277425223407
  0.7471702494841309  0.3075084333097063  0.8150578828257716
  0.0014258724192078  0.6891891150363328  0.8189833557830170
  0.2513458281885851  0.3541428016072406  0.0701851347391810
 -0.0010975296306036  0.6345522965261805  0.0645885331028177
  0.5024339933128318  0.2779209556418528  0.3227762248894140
  0.2454007859024317  0.7211846440487952  0.3036409826084263
  0.7517048487540400  0.3417292613812741  0.0699381753464212
  0.5013760102497435  0.6624583825104302  0.0648585812062699
  0.0010728066416736  0.3692850088843207  0.3200738858209002
  0.7453100139539042  0.6373082745666560  0.3122361463566213
  0.2506325876720851  0.3204740967982580  0.5704423083124663
  0.0020198174791974  0.6669765543897280  0.5653812249842223
  0.5007092632375110  0.3471856338839355  0.8226300977027496
  0.2496614742032668  0.6544878375903028  0.8133329407046690
  0.7531067971082455  0.3567819806325343  0.5718217748887143
  0.5050384819810013  0.6586731892184189  0.5666639529203230
 -0.0000209931440713  0.3416037717023175  0.8253706554543563
  0.7507594037657798  0.6622581783888369  0.8158440097614984
  0.4877596103326239  0.0810900832686350  0.0480205319881820
  0.2497729236243546  0.9032053285375862  0.0383119253306415
  0.2134701021484195  0.1022581540890290  0.3167950589899999
 -0.0481450984603096  0.8954901058354108  0.3231287569536983
  0.9776723954633790  0.0835817944367102  0.0505773090340571
  0.7690085316104559  0.9063276155335185  0.0753508946360224
  0.7918831862669327  0.1022524296508033  0.3163316783150362
  0.5307980900525847  0.9033740703701992  0.2982692363034983
  0.5375960078698014  0.0978526224822624  0.5829481211650805
  0.2571933133760719  0.9323055435937009  0.5627195978655162
  0.2481190334402179  0.0996799277657412  0.8629784457473204
 -0.0068175780542697  0.8986973594989486  0.8621693885313351
  0.9946171741730092  0.1002645195277651  0.5309675025493674
  0.7478154366308248  0.9113740844786326  0.5730506389101138
  0.7452288895913712  0.0894170584252993  0.8162797047563547
  0.5059533358770785  0.9061905719247713  0.8124509409932249
 
  0.00000000E+00  0.00000000E+00  0.00000000E+00
  0.00000000E+00  0.00000000E+00  0.00000000E+00
  0.00000000E+00  0.00000000E+00  0.00000000E+00
  0.00000000E+00  0.00000000E+00  0.00000000E+00
  0.00000000E+00  0.00000000E+00  0.00000000E+00
  0.00000000E+00  0.00000000E+00  0.00000000E+00
  0.00000000E+00  0.00000000E+00  0.00000000E+00
  0.00000000E+00  0.00000000E+00  0.00000000E+00
  0.00000000E+00  0.00000000E+00  0.00000000E+00
  0.00000000E+00  0.00000000E+00  0.00000000E+00
  0.00000000E+00  0.00000000E+00  0.00000000E+00
  0.00000000E+00  0.00000000E+00  0.00000000E+00
  0.00000000E+00  0.00000000E+00  0.00000000E+00
  0.00000000E+00  0.00000000E+00  0.00000000E+00
  0.00000000E+00  0.00000000E+00  0.00000000E+00
  0.00000000E+00  0.00000000E+00  0.00000000E+00
  0.00000000E+00  0.00000000E+00  0.00000000E+00
  0.00000000E+00  0.00000000E+00  0.00000000E+00
  0.00000000E+00  0.00000000E+00  0.00000000E+00
  0.00000000E+00  0.00000000E+00  0.00000000E+00
  0.00000000E+00  0.00000000E+00  0.00000000E+00
  0.00000000E+00  0.00000000E+00  0.00000000E+00
  0.00000000E+00  0.00000000E+00  0.00000000E+00
  0.00000000E+00  0.00000000E+00  0.00000000E+00
  0.00000000E+00  0.00000000E+00  0.00000000E+00
  0.00000000E+00  0.00000000E+00  0.00000000E+00
  0.00000000E+00  0.00000000E+00  0.00000000E+00
  0.00000000E+00  0.00000000E+00  0.00000000E+00
  0.00000000E+00  0.00000000E+00  0.00000000E+00
  0.00000000E+00  0.00000000E+00  0.00000000E+00
  0.00000000E+00  0.00000000E+00  0.00000000E+00
  0.00000000E+00  0.00000000E+00  0.00000000E+00
  0.00000000E+00  0.00000000E+00  0.00000000E+00
  0.00000000E+00  0.00000000E+00  0.00000000E+00
  0.00000000E+00  0.00000000E+00  0.00000000E+00
  0.00000000E+00  0.00000000E+00  0.00000000E+00
  0.00000000E+00  0.00000000E+00  0.00000000E+00
  0.00000000E+00  0.00000000E+00  0.00000000E+00
  0.00000000E+00  0.00000000E+00  0.00000000E+00
  0.00000000E+00  0.00000000E+00  0.00000000E+00
  0.00000000E+00  0.00000000E+00  0.00000000E+00
  0.00000000E+00  0.00000000E+00  0.00000000E+00
  0.00000000E+00  0.00000000E+00  0.00000000E+00
  0.00000000E+00  0.00000000E+00  0.00000000E+00
  0.00000000E+00  0.00000000E+00  0.00000000E+00
  0.00000000E+00  0.00000000E+00  0.00000000E+00
  0.00000000E+00  0.00000000E+00  0.00000000E+00
  0.00000000E+00  0.00000000E+00  0.00000000E+00
  0.00000000E+00  0.00000000E+00  0.00000000E+00
  0.00000000E+00  0.00000000E+00  0.00000000E+00
  0.00000000E+00  0.00000000E+00  0.00000000E+00
  0.00000000E+00  0.00000000E+00  0.00000000E+00
  0.00000000E+00  0.00000000E+00  0.00000000E+00
  0.00000000E+00  0.00000000E+00  0.00000000E+00
  0.00000000E+00  0.00000000E+00  0.00000000E+00
  0.00000000E+00  0.00000000E+00  0.00000000E+00
  0.00000000E+00  0.00000000E+00  0.00000000E+00
  0.00000000E+00  0.00000000E+00  0.00000000E+00
