Li8 Mg4 Bi16 S16 O16                    
   1.00000000000000     
    11.2783083702492135   -0.0002726531570085    0.0009390129580820
    -0.0003314981355189    9.5715430756042270   -0.0350013002795505
     0.0009380082562432   -0.0419082980558004   11.1991311813689673
   Li   Mg   Bi   S    O 
     8     4    16    16    16
Direct
  0.3636317790242418 -0.0006295079371647  0.4367913331270430
  0.3644860848643389  0.0005658453348027  0.1869246422562006
  0.6129057772067713  0.0001126025621573  0.4375794969924304
  0.8984398641743694 -0.0003664370362725  0.1872600422800592
  0.3636317790242418 -0.0006295079371647  0.9367913331270429
  0.3644860848643389  0.0005658453348027  0.6869246422562003
  0.6129057772067713  0.0001126025621573  0.9375794969924305
  0.8984398641743694 -0.0003664370362725  0.6872600422800588
  0.8569055140770704  0.0000564303459050  0.4374637682581310
  0.6305273935251495 -0.0000063076455290  0.1876478837061488
  0.8569055140770704  0.0000564303459050  0.9374637682581308
  0.6305273935251495 -0.0000063076455290  0.6876478837061486
 -0.0010162845887432  0.3041407759420681  0.0602866193605483
  0.2550477270258515  0.7018491994222615  0.0619240520768759
  0.2550250914184135  0.2982136361665335  0.3132284062063580
  0.4983129786852139  0.6905267378022513  0.3102843168604008
  0.4983298457366710  0.3094876525146323  0.0650609619985680
  0.7505307595519753  0.6829803989159923  0.0616547490607843
  0.7504791143990006  0.3170825662890298  0.3136656154123738
 -0.0010182802502167  0.6958287182339388  0.3149254009320965
 -0.0010162845887432  0.3041407759420681  0.5602866193605482
  0.2550477270258515  0.7018491994222615  0.5619240520768758
  0.2550250914184135  0.2982136361665335  0.8132284062063583
  0.4983129786852139  0.6905267378022513  0.8102843168604010
  0.4983298457366710  0.3094876525146323  0.5650609619985679
  0.7505307595519753  0.6829803989159923  0.5616547490607844
  0.7504791143990006  0.3170825662890298  0.8136656154123737
 -0.0010182802502167  0.6958287182339388  0.8149254009320963
  0.2543955445743831  0.3348123511991166  0.0624176658252413
 -0.0046211031178973  0.6639594112194488  0.0634217250896308
  0.5039545057358019  0.3564119920176777  0.3107746404875670
  0.2543833101671932  0.6652452533726846  0.3128273287163427
  0.7508445837736739  0.3606079043969788  0.0615173956325980
  0.5039976861126980  0.6436779273381407  0.0646476856832746
  0.9953410398130830  0.3362127927796097  0.3118668580455349
  0.7508199658371150  0.6394279243860196  0.3138848637451946
  0.2543955445743831  0.3348123511991166  0.5624176658252413
 -0.0046211031178973  0.6639594112194488  0.5634217250896311
  0.5039545057358019  0.3564119920176777  0.8107746404875669
  0.2543833101671932  0.6652452533726846  0.8128273287163429
  0.7508445837736739  0.3606079043969788  0.5615173956325983
  0.5039976861126980  0.6436779273381407  0.5646476856832745
  0.9953410398130830  0.3362127927796097  0.8118668580455352
  0.7508199658371150  0.6394279243860195  0.8138848637451945
  0.5205661171842988  0.0889732299473092  0.0701075656378300
  0.2939972135118566  0.9056355070207156  0.0615777662787854
  0.2939249174555296  0.0944190534366149  0.3129076488586855
 -0.0495260187719479  0.9015630189280774  0.3185769688764798
  0.9505761844687065  0.0983980096607494  0.0563556725709612
  0.7392237126858898  0.9140852937244500  0.0588150521273645
  0.7390125917292791  0.0860100505213665  0.3165349023170890
  0.5205223839902291  0.9110779691404201  0.3053689715794158
  0.5205661171842988  0.0889732299473092  0.5701075656378305
  0.2939972135118566  0.9056355070207156  0.5615777662787855
  0.2939249174555296  0.0944190534366149  0.8129076488586854
 -0.0495260187719479  0.9015630189280774  0.8185769688764798
  0.9505761844687065  0.0983980096607494  0.5563556725709619
  0.7392237126858898  0.9140852937244500  0.5588150521273640
  0.7390125917292791  0.0860100505213665  0.8165349023170889
  0.5205223839902291  0.9110779691404201  0.8053689715794164
 
  0.00000000E+00  0.00000000E+00  0.00000000E+00
  0.00000000E+00  0.00000000E+00  0.00000000E+00
  0.00000000E+00  0.00000000E+00  0.00000000E+00
  0.00000000E+00  0.00000000E+00  0.00000000E+00
  0.00000000E+00  0.00000000E+00  0.00000000E+00
  0.00000000E+00  0.00000000E+00  0.00000000E+00
  0.00000000E+00  0.00000000E+00  0.00000000E+00
  0.00000000E+00  0.00000000E+00  0.00000000E+00
  0.00000000E+00  0.00000000E+00  0.00000000E+00
  0.00000000E+00  0.00000000E+00  0.00000000E+00
  0.00000000E+00  0.00000000E+00  0.00000000E+00
  0.00000000E+00  0.00000000E+00  0.00000000E+00
  0.00000000E+00  0.00000000E+00  0.00000000E+00
  0.00000000E+00  0.00000000E+00  0.00000000E+00
  0.00000000E+00  0.00000000E+00  0.00000000E+00
  0.00000000E+00  0.00000000E+00  0.00000000E+00
  0.00000000E+00  0.00000000E+00  0.00000000E+00
  0.00000000E+00  0.00000000E+00  0.00000000E+00
  0.00000000E+00  0.00000000E+00  0.00000000E+00
  0.00000000E+00  0.00000000E+00  0.00000000E+00
  0.00000000E+00  0.00000000E+00  0.00000000E+00
  0.00000000E+00  0.00000000E+00  0.00000000E+00
  0.00000000E+00  0.00000000E+00  0.00000000E+00
  0.00000000E+00  0.00000000E+00  0.00000000E+00
  0.00000000E+00  0.00000000E+00  0.00000000E+00
  0.00000000E+00  0.00000000E+00  0.00000000E+00
  0.00000000E+00  0.00000000E+00  0.00000000E+00
  0.00000000E+00  0.00000000E+00  0.00000000E+00
  0.00000000E+00  0.00000000E+00  0.00000000E+00
  0.00000000E+00  0.00000000E+00  0.00000000E+00
  0.00000000E+00  0.00000000E+00  0.00000000E+00
  0.00000000E+00  0.00000000E+00  0.00000000E+00
  0.00000000E+00  0.00000000E+00  0.00000000E+00
  0.00000000E+00  0.00000000E+00  0.00000000E+00
  0.00000000E+00  0.00000000E+00  0.00000000E+00
  0.00000000E+00  0.00000000E+00  0.00000000E+00
  0.00000000E+00  0.00000000E+00  0.00000000E+00
  0.00000000E+00  0.00000000E+00  0.00000000E+00
  0.00000000E+00  0.00000000E+00  0.00000000E+00
  0.00000000E+00  0.00000000E+00  0.00000000E+00
  0.00000000E+00  0.00000000E+00  0.00000000E+00
  0.00000000E+00  0.00000000E+00  0.00000000E+00
  0.00000000E+00  0.00000000E+00  0.00000000E+00
  0.00000000E+00  0.00000000E+00  0.00000000E+00
  0.00000000E+00  0.00000000E+00  0.00000000E+00
  0.00000000E+00  0.00000000E+00  0.00000000E+00
  0.00000000E+00  0.00000000E+00  0.00000000E+00
  0.00000000E+00  0.00000000E+00  0.00000000E+00
  0.00000000E+00  0.00000000E+00  0.00000000E+00
  0.00000000E+00  0.00000000E+00  0.00000000E+00
  0.00000000E+00  0.00000000E+00  0.00000000E+00
  0.00000000E+00  0.00000000E+00  0.00000000E+00
  0.00000000E+00  0.00000000E+00  0.00000000E+00
  0.00000000E+00  0.00000000E+00  0.00000000E+00
  0.00000000E+00  0.00000000E+00  0.00000000E+00
  0.00000000E+00  0.00000000E+00  0.00000000E+00
  0.00000000E+00  0.00000000E+00  0.00000000E+00
  0.00000000E+00  0.00000000E+00  0.00000000E+00
  0.00000000E+00  0.00000000E+00  0.00000000E+00
  0.00000000E+00  0.00000000E+00  0.00000000E+00
