Li Mg Bi  S  O 
 1.0000000000000000
    11.1784999999999997    0.0000000000000000    0.0000000000000000
     0.0000000000000000    9.5746000000000002    0.0000000000000000
     0.0000000000000000    0.0000000000000000   11.1823999999999995
 Li  Mg  Bi  S   O  
  10   3  16  16  16
Direct
  0.3596515480401820  0.0009521374590963  0.4363253580238005
  0.3797861781918199  0.0037580914758635  0.1784874152424193
  0.6219161695612464  0.9991490005561896  0.4564358200965878
  0.8911639671505043 -0.0040617385767976  0.4397218923997868
  0.6217466144725076  1.0035457005193622  0.1981352613689133
  0.8638782335226108 -0.0018667308788772  0.1848482024979750
  0.1482403982413395  0.9939743447625495  0.9239804594976009
  0.1236875963180149  1.0033817625993178  0.6742150662402164
  0.8845538040053832  0.0038491132244691  0.9375816719413081
  0.8585163882205229  0.0054396503098361  0.6846607287195794
  0.1194977757808247  1.0035080368097087  0.1953118836921156
  0.3857591028570728  0.0005230931266943  0.6993284105898457
  0.6196993656011839  0.9990616606441506  0.9321211765595518
 -0.0012687516798368  0.3062411786055717  0.0634981141442118
  0.2479159098640498  0.6994542182318950  0.0670814675396933
  0.2500802784426009  0.3034209882801402  0.3104331311590807
  0.5007212409344430  0.7058917021594825  0.3149729467376595
  0.5030207076080068  0.3010938907136076  0.0644799256011998
  0.7490967313950696  0.6961674871333950  0.0616630319495012
  0.7479764079460478  0.2952955619838949  0.3139089458288229
  0.9973543001566475  0.6976523052041215  0.3118180243633863
 -0.0042495993138952  0.2941092363329110  0.5656163922893168
  0.2518509223260135  0.6962894024901263  0.5664649279778294
  0.2477086588753004  0.3030110429411316  0.8097721512297720
  0.5003697211675412  0.6924491023454287  0.8146815303331106
  0.4957718574496539  0.3008094360556032  0.5600711441253111
  0.7539358636390807  0.7076278941208687  0.5605308523446217
  0.7503965992652152  0.3004964144849543  0.8125898947909287
  1.0012659622145914  0.7057434191914246  0.8141435934318818
  0.2505162745414838  0.3423494934232336  0.0620967358636743
 -0.0000303035203640  0.6491302382740062  0.0649683441138195
  0.4991962963154831  0.3482175961957552  0.3117862246986527
  0.2481730628889401  0.6615544276137760  0.3129746735369499
  0.7508661146343294  0.3530755973630924  0.0611254773426360
  0.5013307816559444  0.6589182032173945  0.0638098810059190
  1.0002460633316519  0.3315337802398702  0.3133012200448275
  0.7509054531601991  0.6536813844532497  0.3128556817561443
  0.2504455539697917  0.3467607513718127  0.5630003087084821
  0.0010394045158788  0.6629483727630509  0.5646966892327885
  0.4995913592689993  0.3191564218973350  0.8131781165516472
  0.2517519537327447  0.6558723163027650  0.8161179271321106
  0.7479308759755163  0.3373394472919838  0.5626956367909379
  0.5006028020427871  0.6544191582269182  0.5656471811536198
  1.0000065751361833  0.3478519230796087  0.8134505514836553
  0.7505580088342311  0.6585543624139059  0.8142570204827291
  0.5229805101793900  0.0839395385876678  0.0689424077049060
  0.2306039157653794  0.9164954401793372  0.0762204772660699
  0.2550962792596999  0.0864821459172764  0.2922659216029759
 -0.0106266259627795  0.9146322078099889  0.2928109660617997
  1.0005897073613812  0.0852553867181914  0.0723939374056849
  0.7436581768206739  0.9177183272943412  0.0543492621595658
  0.7482938573858775  0.0789395603700659  0.3070065033579222
  0.4976977322281686  0.9229572059125887  0.3139088699882497
  0.4783014755846843  0.0834505641012978  0.5579947985159426
  0.2696591856138127  0.9114024345532993  0.5824277963488692
  0.2452466551296588  0.0849011595208382  0.7916714496401008
  0.0057627836379462  0.9219498190523442  0.8211470001508261
  0.9865170470606596  0.0812429607561159  0.5781973310981030
  0.7617400373389538  0.9204110851878937  0.5475750383140834
  0.7561170609905388  0.0836606675671022  0.8333099683095876
  0.5019272993688459  0.9113750782369578  0.8158889707134750
