Li Mg Bi  S  O 
 1.0000000000000000
    11.1784999999999997    0.0000000000000000    0.0000000000000000
     0.0000000000000000    9.5746000000000002    0.0000000000000000
     0.0000000000000000    0.0000000000000000   11.1823999999999995
 Li  Mg  Bi  S   O  
  12   2  16  16  16
Direct
  0.3506551549685336  0.0012043613527954  0.4374261013223837
  0.1297042907374670  1.0028491865443914  0.1825213308330016
  0.3768991663145219  0.0013715139181755  0.1862931002729542
  0.6207135269658959  1.0018804172688003  0.4353058921756565
  0.6218324749095679  0.9974908631102850  0.1838763835532052
  0.8739591676621984 -0.0031556395868139  0.1828653020642768
  0.3494756985583325  0.0030179576526901  0.9344677642035208
  0.3791275635056755  0.0020697644528382  0.6874047750112783
  0.6238097133247658  1.0005933920410526  0.9396751254305946
  0.8977473961804390  0.0007663702163710  0.9346464384323639
  0.6195142273042190  1.0047768662246275  0.6907004504606415
  0.8670828454875269 -0.0000887951667388  0.6899252593972059
  0.8853095308847382  0.0040170651783869  0.4387340438493391
  0.1231858632434581  1.0045833717080579  0.6828492221404934
 -0.0013193832916661  0.2925055856626801  0.0632006093879449
  0.2514546571899149  0.7082535672469553  0.0638473545458154
  0.2530448196147091  0.2952627525827592  0.3079817999839511
  0.4998637000347141  0.7055259114344439  0.3111198324237078
  0.4999464584208332  0.2962468305632526  0.0616796602221461
  0.7498031485235988  0.7042991086953102  0.0618386690249168
  0.7503300489007361  0.3058394994956497  0.3135040301185209
  0.9990370594854686  0.6975785318649400  0.3093589720512722
  0.0001233136925873  0.3122634442647184  0.5619775061258709
  0.2535947948512175  0.6990107329539222  0.5630697720271760
  0.2494404346181006  0.3064984162594684  0.8101153744778037
  0.5012481567787546  0.7073542971916207  0.8125915343585459
  0.4991241472261084  0.2963883554362138  0.5619748960509392
  0.7500239644962925  0.6975573691920514  0.5602178429099900
  0.7484339902271399  0.2954960126154554  0.8133092902137997
  1.0002860525578920  0.7005024563128520  0.8104042056703900
  0.2524513953143603  0.3380914737106284  0.0597080215249064
 -0.0009305714583753  0.6621567837183929  0.0626529592382833
  0.5019369965006716  0.3448718719901455  0.3132122758219195
  0.2502247691292944  0.6645402149005804  0.3144562959868176
  0.7500763625183475  0.3436805945740408  0.0625567787822114
  0.5001532962377659  0.6546985023601584  0.0622643705872533
  1.0006471069962284  0.3375104804885477  0.3137080543252149
  0.7498166295487072  0.6494273094324271  0.3142756566482635
  0.2491448411153908  0.3437824379157285  0.5620117553873988
 -0.0011048622115014  0.6537410050958160  0.5632301174320006
  0.5006318879736457  0.3455462054351870  0.8104406648029809
  0.2481756162216191  0.6596135153995326  0.8111486725025816
  0.7533444515925775  0.3468724714312053  0.5624666242856869
  0.5007063138177479  0.6591572513250515  0.5633625302065703
  1.0001061872204362  0.3378309879541104  0.8130433929892020
  0.7509226605565444  0.6589580609938809  0.8120060117637421
  0.5037221416896687  0.0794494245453361  0.0626157236426229
  0.2632046291974460  0.9209927477702051  0.0721071525295729
  0.2630289472620199  0.0821728372616559  0.3005760776760141
 -0.0211038811869290  0.9137142706467973  0.3085699728881590
  0.9882740945565663  0.0793282674072462  0.0734028297578982
  0.7462079479737062  0.9215545331225106  0.0655580108896038
  0.7578122491665112  0.0844382037483085  0.3244205299593590
  0.5069379481720089  0.9224630168458825  0.3097893529865802
  0.5028034762787410  0.0786247609475717  0.5631097409693533
  0.2535412489061706  0.9171835485709012  0.5792503793034430
  0.2525576511279419  0.0892621169943228  0.7899647753403181
 -0.0056845260824465  0.9178504552357011  0.7889292349164088
  0.9889510868787567  0.0881911951477670  0.5728824568513111
  0.7600687124763870  0.9196266784338530  0.5522595960999633
  0.7472609112893741  0.0775406251692696  0.8094999822285851
  0.4992755262871114  0.9247144135674450  0.8115365024780506
