Li8 Mg4 Bi16 S16 O16                    
   1.00000000000000     
    11.2205882308831786    0.0223877399102862   -0.0411998439138944
     0.0217665472639957    9.5787501557445776   -0.0027251123541142
    -0.0405651273725776    0.0001211988256187   11.2351668715229422
   Li   Mg   Bi   S    O 
     8     4    16    16    16
Direct
  0.0961043623711252  0.0299030534351461  0.2945314113547442
  0.6609269555517213  0.0180689350384649  0.4686205821492028
  0.9101931079622576 -0.0238711668248026  0.4827034772506128
  0.3631067387405032 -0.0159900493517696  0.8818119635261347
  0.6140554005622214  0.9979567350468601  0.9379540053310200
  0.8454212004594082  0.0272908843573103  0.9833269651124238
  0.6245351673931683 -0.0042050806879259  0.7026851569010568
  0.8761526307560447  0.0003933004589468  0.7126406792162414
  0.3670893494152026 -0.0017509764218109  0.1630961841763391
  0.6281873103018880 -0.0001055150139799  0.1892006485646442
  0.1202327283248015 -0.0079689440809075  0.9438351221770653
  0.1299540758746578  0.0142408585346320  0.6791802463898529
  0.0009144756176806  0.3096018624076020  0.0589230649220722
  0.2531522569364230  0.6869695129751106  0.0521486542819780
  0.2506180892105337  0.3031685728307781  0.3085953912995810
  0.4954889788973553  0.6868503426819959  0.3038375428062444
  0.5015436579171856  0.3166402607302976  0.0626138428015182
  0.7485715225251308  0.6994554753036341  0.0587445986625687
  0.7457230203312968  0.3040203329859383  0.3146318147742069
 -0.0045486055027659  0.6999898604899999  0.3137883860986220
 -0.0032582352291723  0.3086277341730872  0.5631578026869918
  0.2508099293746852  0.7035064670816494  0.5551977682505476
  0.2471345370352722  0.3124178142409588  0.8077108448298826
  0.5069563934522646  0.6974107905866277  0.8038192257730120
  0.5015772928481905  0.2878862453331496  0.5653555058611588
  0.7522655763347007  0.6973261762764288  0.5615030057026668
  0.7484087865008083  0.2963042347068569  0.8108491908962758
  0.0066082921052648  0.6898607605139374  0.8054180095938905
  0.2503427144324060  0.3563518203174801  0.0558223301350721
  0.0072373585018934  0.7132772651545680  0.0505787081136479
  0.4984332208876910  0.3540435381642532  0.3068377911494224
  0.2486482401918154  0.6670187547231888  0.2978060558720673
  0.7519667907222011  0.3406625318111507  0.0562347285149337
  0.5056902483862972  0.6372908737310576  0.0514671779977302
  0.0006853785823899  0.2844263020739115  0.3105034855805305
  0.7471214679745452  0.6624158772277589  0.3019331536017799
  0.2458183536948821  0.2748665626156966  0.5610897849948655
  0.0040629260160883  0.6368688649977811  0.5546267912272301
  0.5019947787518317  0.3355886498980629  0.8099092145655848
  0.2519942160145348  0.6418035249329772  0.8024034978676177
  0.7509599767836040  0.3558036101401744  0.5563018031817275
  0.5055170419288444  0.6820530097432935  0.5533980536861103
  0.0020178166313706  0.3648130041805033  0.8121169220465810
  0.7522690268207434  0.6526504993576412  0.8059175395135968
  0.5054049727124627  0.0933526573787846  0.0757902920881507
  0.2688789675574141  0.9111717006541427  0.0282865096988256
  0.2515763472223771  0.0956394819340743  0.2626158351581352
 -0.0118987535764297  0.9051317426619339  0.3476889334081282
 -0.0011781485224038  0.0984294772868842  0.0288644721283134
  0.7230896731129289  0.9161929083610156  0.0586119552844850
  0.7126830281898230  0.0926138277135744  0.3196479171440665
  0.4924123833755885  0.8974677469827116  0.2564789006830927
  0.5494218477131312  0.0875540167102977  0.5743506357338475
  0.2276009885667690  0.9072109101155161  0.5743996995933179
  0.2227745625132079  0.0917207014140414  0.8229717940087088
  0.0268244841433292  0.9109826564366281  0.8012929227487728
  0.9845753804981631  0.0949678161389424  0.6016708138174123
  0.7709239615325745  0.9131274713438108  0.5761701708986497
  0.7521321581281867  0.0793440229714544  0.8262129288808440
  0.5120935944438846  0.9108896950184521  0.8247180892862279
 
  0.00000000E+00  0.00000000E+00  0.00000000E+00
  0.00000000E+00  0.00000000E+00  0.00000000E+00
  0.00000000E+00  0.00000000E+00  0.00000000E+00
  0.00000000E+00  0.00000000E+00  0.00000000E+00
  0.00000000E+00  0.00000000E+00  0.00000000E+00
  0.00000000E+00  0.00000000E+00  0.00000000E+00
  0.00000000E+00  0.00000000E+00  0.00000000E+00
  0.00000000E+00  0.00000000E+00  0.00000000E+00
  0.00000000E+00  0.00000000E+00  0.00000000E+00
  0.00000000E+00  0.00000000E+00  0.00000000E+00
  0.00000000E+00  0.00000000E+00  0.00000000E+00
  0.00000000E+00  0.00000000E+00  0.00000000E+00
  0.00000000E+00  0.00000000E+00  0.00000000E+00
  0.00000000E+00  0.00000000E+00  0.00000000E+00
  0.00000000E+00  0.00000000E+00  0.00000000E+00
  0.00000000E+00  0.00000000E+00  0.00000000E+00
  0.00000000E+00  0.00000000E+00  0.00000000E+00
  0.00000000E+00  0.00000000E+00  0.00000000E+00
  0.00000000E+00  0.00000000E+00  0.00000000E+00
  0.00000000E+00  0.00000000E+00  0.00000000E+00
  0.00000000E+00  0.00000000E+00  0.00000000E+00
  0.00000000E+00  0.00000000E+00  0.00000000E+00
  0.00000000E+00  0.00000000E+00  0.00000000E+00
  0.00000000E+00  0.00000000E+00  0.00000000E+00
  0.00000000E+00  0.00000000E+00  0.00000000E+00
  0.00000000E+00  0.00000000E+00  0.00000000E+00
  0.00000000E+00  0.00000000E+00  0.00000000E+00
  0.00000000E+00  0.00000000E+00  0.00000000E+00
  0.00000000E+00  0.00000000E+00  0.00000000E+00
  0.00000000E+00  0.00000000E+00  0.00000000E+00
  0.00000000E+00  0.00000000E+00  0.00000000E+00
  0.00000000E+00  0.00000000E+00  0.00000000E+00
  0.00000000E+00  0.00000000E+00  0.00000000E+00
  0.00000000E+00  0.00000000E+00  0.00000000E+00
  0.00000000E+00  0.00000000E+00  0.00000000E+00
  0.00000000E+00  0.00000000E+00  0.00000000E+00
  0.00000000E+00  0.00000000E+00  0.00000000E+00
  0.00000000E+00  0.00000000E+00  0.00000000E+00
  0.00000000E+00  0.00000000E+00  0.00000000E+00
  0.00000000E+00  0.00000000E+00  0.00000000E+00
  0.00000000E+00  0.00000000E+00  0.00000000E+00
  0.00000000E+00  0.00000000E+00  0.00000000E+00
  0.00000000E+00  0.00000000E+00  0.00000000E+00
  0.00000000E+00  0.00000000E+00  0.00000000E+00
  0.00000000E+00  0.00000000E+00  0.00000000E+00
  0.00000000E+00  0.00000000E+00  0.00000000E+00
  0.00000000E+00  0.00000000E+00  0.00000000E+00
  0.00000000E+00  0.00000000E+00  0.00000000E+00
  0.00000000E+00  0.00000000E+00  0.00000000E+00
  0.00000000E+00  0.00000000E+00  0.00000000E+00
  0.00000000E+00  0.00000000E+00  0.00000000E+00
  0.00000000E+00  0.00000000E+00  0.00000000E+00
  0.00000000E+00  0.00000000E+00  0.00000000E+00
  0.00000000E+00  0.00000000E+00  0.00000000E+00
  0.00000000E+00  0.00000000E+00  0.00000000E+00
  0.00000000E+00  0.00000000E+00  0.00000000E+00
  0.00000000E+00  0.00000000E+00  0.00000000E+00
  0.00000000E+00  0.00000000E+00  0.00000000E+00
  0.00000000E+00  0.00000000E+00  0.00000000E+00
  0.00000000E+00  0.00000000E+00  0.00000000E+00
