Li Mg Bi  S  O 
 1.0000000000000000
    11.1784999999999997    0.0000000000000000    0.0000000000000000
     0.0000000000000000    9.5746000000000002    0.0000000000000000
     0.0000000000000000    0.0000000000000000   11.1823999999999995
 Li  Mg  Bi  S   O  
  12   2  16  16  16
Direct
  0.3574294335597211 -0.0032984143728252  0.4339048233030710
  0.1226278566001501  1.0013812139813074  0.2016421508147282
  0.3763940215523682  0.0000722597251316  0.1856708698272938
  0.6275245160950969  0.9982765062890628  0.4302108846018710
  0.8957385925301600 -0.0005226233582455  0.4458177587837383
  0.6275746809167353  0.9997423071415810  0.1894498368489664
  0.8739775382967837  0.0005735189457782  0.1860195725492725
  0.1236407922632168  0.9981808913379646  0.9441896687420285
  0.3733144480523514 -0.0002900257520189  0.9368477968027511
  0.3753915480208523  0.0001833018666341  0.6861732730852644
  0.6258020336340417  1.0021390737543285  0.9454511396155273
  0.8773428135373538  0.0014848538483901  0.9236361116448106
  0.1173688089029312  0.9967957862497351  0.6810078208047892
  0.6326815570440560  1.0007178570612911  0.6877817009484358
 -0.0012495457405062  0.2958531751472231  0.0631531165408317
  0.2508109738865117  0.7058153025197477  0.0624566363486665
  0.2506376054505559  0.2918464413024403  0.3103359233266520
  0.5002282440668900  0.7048694684414374  0.3119716775251751
  0.4984529549930596  0.2943175747492496  0.0632077129196429
  0.7514662636708291  0.7056891136172909  0.0632176043232479
  0.7492289216813213  0.2964885430732225  0.3116015053555251
  0.9987570420683110  0.7079387127950642  0.3105478608632565
 -0.0019006023933880  0.2978908235950777  0.5617636970462345
  0.2496797318836326  0.6975096464718088  0.5622697667940990
  0.2473029498573824  0.3028679628699573  0.8112062420550871
  0.5004298699034312  0.6970511883617189  0.8114283650478316
  0.5007843258850037  0.3043123977548023  0.5631119488029607
  0.7488320148956239  0.6990705597378157  0.5609093211801878
  0.7479856063374234  0.3015643574638426  0.8157326487569000
  1.0024424122993891  0.6976287378003492  0.8135444323047961
  0.2508185929679256  0.3425277588837325  0.0607565104127602
  0.0008631159293017  0.6559850292440675  0.0616567758762399
  0.5007085238041721  0.3424986694006033  0.3129918831741969
  0.2510200261005636  0.6675542705865395  0.3131991476203541
  0.7500540989929325  0.3434505207838661  0.0624300508755011
  0.5004840657672220  0.6606226723337747  0.0614917850765141
  1.0000341756386151  0.3373713927161012  0.3120929799257082
  0.7492611213455995  0.6544911870076049  0.3131180468408562
  0.2502356915027895  0.3380592746866981  0.5630741750181678
  0.0008830418492493  0.6762826410292077  0.5641215995199101
  0.5014847969369602  0.3456503270256031  0.8127741161413267
  0.2502571799660953  0.6512786158402623  0.8116496776424051
  0.7488976900155996  0.3360942089457226  0.5646914905958315
  0.4997989538773632  0.6517082234614897  0.5639529706062936
  1.0009555711324383  0.3391694050858401  0.8119085843985030
  0.7493645612322891  0.6661622154613066  0.8119835264517715
  0.4989289463083202  0.0760004994047321  0.0600844789518501
  0.2523508644257362  0.9231136239286367  0.0571358482321138
  0.2632306754900218  0.0791221923402013  0.2988896186670562
 -0.0135100350302400  0.9203680173664406  0.2991448427753081
  0.9987641158429905  0.0787430439907588  0.0593322803788760
  0.7490231989067329  0.9231462031096799  0.0627555390005395
  0.7465783113007409  0.0797103257754007  0.3090362187089110
  0.5016607929888454  0.9224480868419001  0.3128615551329270
  0.5071861401720034  0.0833714820174658  0.5740784635321600
  0.2560396360252342  0.9150311663535672  0.5811457302877823
  0.2434317822538164  0.0812233366138761  0.8025946780881132
  0.0207211225185987  0.9147398616909558  0.8194368228266214
  1.0018565915563835  0.0845111443776753  0.5687582751989703
  0.7288192942441691  0.9151441727350811  0.5557864192758623
  0.7315284396116513  0.0838100996885632  0.8211094261373096
  0.5053689572974831  0.9194393120003431  0.8039337399958224
