Li10 Mg3 Bi16 S16 O16                   
   1.00000000000000     
    11.2108575975523017   -0.0115013171000303    0.0171649558299677
    -0.0086028033883257    9.5321292989530182    0.0258364133110587
     0.0172708242818300    0.0321651264449456   11.1949543846816653
   Li   Mg   Bi   S    O 
    10     3    16    16    16
Direct
  0.3748879680472116  0.0019676416245297  0.4453304418985917
  0.1597274824225275  0.9646047628551273  0.2472799529140707
  0.3842340739208539  0.0024831819434592  0.1863848839435194
  0.6297232327789587  0.9954442293203394  0.4291628333853622
  0.9031353486830945 -0.0323396225705142  0.5367305384349990
  0.6172640532459608  0.0036073506874045  0.1894041190907047
  0.2326519411992558  0.0264365500937911  0.9596206920117112
  0.1063215530786053  0.0169239307621974  0.7109473855823137
  0.3702693963655728 -0.0038681319693827  0.6992313221766211
  0.5995376327423352  0.0063676731228340  0.9350906204643107
  0.8746610982889431 -0.0014008706587406  0.1826309283148639
  0.8680913084109249  0.0022144705293346  0.9182727826209993
  0.6372262361787980  0.0035209458699750  0.6821412358553186
 -0.0024120135164119  0.3150780506656605  0.0567563076076672
  0.2531212306514829  0.7012088778801410  0.0668793417678925
  0.2563576571977799  0.2928439648151013  0.3096868830360080
  0.5016525351645552  0.6996420539831946  0.3097289294065487
  0.4994805346814248  0.3007034454431644  0.0610699439633878
  0.7525854539399484  0.6844291573555799  0.0575735264294394
  0.7524325860185074  0.2997663847402540  0.3043918695993923
  0.0007942427783631  0.6872003612450965  0.3054128853434078
  0.0084735665573068  0.3029969583121814  0.5600962514846388
  0.2552629307057474  0.7049138584859203  0.5621411963503241
  0.2520465941958729  0.3056557949860734  0.8039283803640420
  0.5009524016611565  0.6976818779741859  0.8071192588955766
  0.5060451517615541  0.3093112466652070  0.5574987713936327
  0.7501255361280565  0.6884642482254072  0.5576658505205817
  0.7502309902847233  0.3141484604511095  0.8076126263697951
  0.0038046262910054  0.6987559772784342  0.8087359039944013
  0.2467977239305762  0.2947415063608841  0.0549104049648761
  0.0004107585928316  0.6446976838560313  0.0554253812251218
  0.5010620593125990  0.3537948639637392  0.3065524401257552
  0.2494969734412938  0.6526885854296416  0.3086255530189566
  0.7457757770275578  0.3618516585507670  0.0585165968451308
  0.5015617420423523  0.6678478968541237  0.0576645209923597
  0.9978510754659515  0.3155630801047928  0.3056348836097196
  0.7502474342675317  0.6538503410366977  0.3061701391264115
  0.2542373231790047  0.3481676046072998  0.5564861879725023
 -0.0023248969017608  0.7149860417892091  0.5544069177426011
  0.5020377072849379  0.3455934041785324  0.8068062715410528
  0.2515386844611282  0.6676088501839507  0.8104865507135938
  0.7523819114505549  0.3390738166799090  0.5595773887534728
  0.5035580279595853  0.6430493910313951  0.5585837558491246
 -0.0009398839123564  0.3505707815811300  0.8084461963423275
  0.7502483602385990  0.6531201020173205  0.8067004790794922
  0.5163666392644832  0.0860814267360217  0.0723675529800128
  0.2515570086313955  0.9132164058687787  0.0943947616600368
  0.2815811482342204  0.0810855869745653  0.3136660418323748
 -0.0013034096578945  0.9007270722997663  0.2745461442465481
  0.9511944925608207  0.1028979970179457  0.0489067684952459
  0.7669266220114740  0.9091326789547378  0.0530231635924112
  0.7448307921118336  0.0812521033925711  0.2863195043698465
  0.5087129156904300  0.9171952094629131  0.3132551914814183
  0.5219547044866220  0.0886563340254667  0.5621975824882881
  0.2878440135768476  0.9125464974793438  0.5704243744987730
  0.2474321463334819  0.0894827724873836  0.7988461590348220
 -0.0062293629936705  0.9133689668114211  0.8229685236037161
  0.0121224843702647  0.0952014965767641  0.5850241864753138
  0.7358398208568142  0.9094613640811238  0.5580528958963298
  0.7344029863598135  0.0884295242487727  0.8195076112389007
  0.5187508704585583  0.9155261252399108  0.7924502069833730
 
  0.00000000E+00  0.00000000E+00  0.00000000E+00
  0.00000000E+00  0.00000000E+00  0.00000000E+00
  0.00000000E+00  0.00000000E+00  0.00000000E+00
  0.00000000E+00  0.00000000E+00  0.00000000E+00
  0.00000000E+00  0.00000000E+00  0.00000000E+00
  0.00000000E+00  0.00000000E+00  0.00000000E+00
  0.00000000E+00  0.00000000E+00  0.00000000E+00
  0.00000000E+00  0.00000000E+00  0.00000000E+00
  0.00000000E+00  0.00000000E+00  0.00000000E+00
  0.00000000E+00  0.00000000E+00  0.00000000E+00
  0.00000000E+00  0.00000000E+00  0.00000000E+00
  0.00000000E+00  0.00000000E+00  0.00000000E+00
  0.00000000E+00  0.00000000E+00  0.00000000E+00
  0.00000000E+00  0.00000000E+00  0.00000000E+00
  0.00000000E+00  0.00000000E+00  0.00000000E+00
  0.00000000E+00  0.00000000E+00  0.00000000E+00
  0.00000000E+00  0.00000000E+00  0.00000000E+00
  0.00000000E+00  0.00000000E+00  0.00000000E+00
  0.00000000E+00  0.00000000E+00  0.00000000E+00
  0.00000000E+00  0.00000000E+00  0.00000000E+00
  0.00000000E+00  0.00000000E+00  0.00000000E+00
  0.00000000E+00  0.00000000E+00  0.00000000E+00
  0.00000000E+00  0.00000000E+00  0.00000000E+00
  0.00000000E+00  0.00000000E+00  0.00000000E+00
  0.00000000E+00  0.00000000E+00  0.00000000E+00
  0.00000000E+00  0.00000000E+00  0.00000000E+00
  0.00000000E+00  0.00000000E+00  0.00000000E+00
  0.00000000E+00  0.00000000E+00  0.00000000E+00
  0.00000000E+00  0.00000000E+00  0.00000000E+00
  0.00000000E+00  0.00000000E+00  0.00000000E+00
  0.00000000E+00  0.00000000E+00  0.00000000E+00
  0.00000000E+00  0.00000000E+00  0.00000000E+00
  0.00000000E+00  0.00000000E+00  0.00000000E+00
  0.00000000E+00  0.00000000E+00  0.00000000E+00
  0.00000000E+00  0.00000000E+00  0.00000000E+00
  0.00000000E+00  0.00000000E+00  0.00000000E+00
  0.00000000E+00  0.00000000E+00  0.00000000E+00
  0.00000000E+00  0.00000000E+00  0.00000000E+00
  0.00000000E+00  0.00000000E+00  0.00000000E+00
  0.00000000E+00  0.00000000E+00  0.00000000E+00
  0.00000000E+00  0.00000000E+00  0.00000000E+00
  0.00000000E+00  0.00000000E+00  0.00000000E+00
  0.00000000E+00  0.00000000E+00  0.00000000E+00
  0.00000000E+00  0.00000000E+00  0.00000000E+00
  0.00000000E+00  0.00000000E+00  0.00000000E+00
  0.00000000E+00  0.00000000E+00  0.00000000E+00
  0.00000000E+00  0.00000000E+00  0.00000000E+00
  0.00000000E+00  0.00000000E+00  0.00000000E+00
  0.00000000E+00  0.00000000E+00  0.00000000E+00
  0.00000000E+00  0.00000000E+00  0.00000000E+00
  0.00000000E+00  0.00000000E+00  0.00000000E+00
  0.00000000E+00  0.00000000E+00  0.00000000E+00
  0.00000000E+00  0.00000000E+00  0.00000000E+00
  0.00000000E+00  0.00000000E+00  0.00000000E+00
  0.00000000E+00  0.00000000E+00  0.00000000E+00
  0.00000000E+00  0.00000000E+00  0.00000000E+00
  0.00000000E+00  0.00000000E+00  0.00000000E+00
  0.00000000E+00  0.00000000E+00  0.00000000E+00
  0.00000000E+00  0.00000000E+00  0.00000000E+00
  0.00000000E+00  0.00000000E+00  0.00000000E+00
  0.00000000E+00  0.00000000E+00  0.00000000E+00
