Li4 Mg6 Bi16 S16 O16                    
   1.00000000000000     
    11.3116266379326706    0.0024649153730977    0.0849905035625606
     0.0020120428479209    9.5833912927429132   -0.0029355249951831
     0.0858055881736014   -0.0036120445426000   11.2882634550682397
   Li   Mg   Bi   S    O 
     4     6    16    16    16
Direct
  0.1779727937517551  0.9493112178949870  0.2437023701045624
  0.9274628401010448 -0.0439025984741327  0.4993351908082934
  0.1574785118381723  0.0276343232279758  0.6616946456362565
  0.4262722407437594 -0.0329566098227939  0.6273730922413222
  0.6408757776422324  0.0033264610016283  0.4276711385712615
  0.6233252629390114 -0.0025319369188985  0.1672364738054701
  0.8850001623607230  0.0139746050090193  0.1990622480116771
  0.1137624741409844  0.0018466173106635  0.9510755740718260
  0.5660292170130822  0.0576457596063829  0.8769032761217000
  0.8539544472648405 -0.0012882425668455  0.9360368757224098
 -0.0020702914594062  0.3194935157451930  0.0637134838316349
  0.2413656914246487  0.6950949750170111  0.0648538173808766
  0.2488376275820814  0.2849948071758743  0.3195067788163528
  0.4967431866708976  0.6954763502676284  0.3100244478361197
  0.4966356733766272  0.3141365922529892  0.0645732615227205
  0.7481313684377610  0.6843563354534536  0.0643330290558442
  0.7477210770534876  0.3223312847310014  0.3112981828630916
 -0.0017932433163290  0.6894187459527280  0.3146451860444252
  0.0042704582638619  0.2917237443784497  0.5650151007965365
  0.2492791213244458  0.7047840372616520  0.5665833009002499
  0.2394667404140859  0.3052047220472084  0.8161999300693905
  0.4904050166378293  0.7042841487934521  0.8064125336482812
  0.5018248750544952  0.2987112039968434  0.5557311346955298
  0.7495557000910357  0.6981640309210931  0.5575597384874986
  0.7477571595815357  0.3194735674639275  0.8114880937119847
 -0.0058095403603344  0.6898375718586499  0.8157259922470297
  0.2395699632744033  0.3291019496725177  0.0637906105159849
 -0.0029354060857426  0.6313494939486768  0.0699839293617440
  0.4961572870321426  0.3522519965700944  0.3069323569392500
  0.2490259309523720  0.6948864456734937  0.3148735076681052
  0.7394276625469844  0.3721372989261812  0.0596426082158849
  0.5032618564806128  0.6904902252536282  0.0644822454958195
  0.9863448707497799  0.2894829718396351  0.3038279844391603
  0.7530697795513179  0.6323049433134581  0.3158505534804707
  0.2458860061715656  0.3371186314107695  0.5687487664823001
 -0.0022325783785819  0.6928335309108490  0.5668733582663013
  0.4934673565807963  0.3027770648288506  0.8111870952912723
  0.2464419766437763  0.6534575992728242  0.8204489024395839
  0.7452979774607106  0.3373499511262880  0.5590296808064256
  0.5017099205407159  0.6573657908263685  0.5638268412035639
  0.9867435626199589  0.3583639416093598  0.8106957196908536
  0.7476943091927087  0.6821233840865556  0.8209857914374927
  0.5358052121221375  0.1007576120170968  0.0477357900023950
  0.1983501460025033  0.9017632353775007  0.0734105112854842
  0.2622346687425635  0.0819306892174702  0.3177984072855118
 -0.0130952205588159  0.9034666620056194  0.3020134858307159
  0.9700932984271172  0.0934273599896934  0.0485744363244292
  0.7688622600748440  0.9145854590071321  0.0820092775331278
  0.7346738847202939  0.0947553369938570  0.2838541404332207
  0.5531908537977669  0.9007608525050326  0.3041174551583282
  0.5249346985971614  0.0889042660832941  0.5367653726406623
  0.2713691312039965  0.9084384023792970  0.5959784971958928
  0.1968811089731221  0.0979914070873410  0.8211698349631787
 -0.0114872873475042  0.8993908372842326  0.8639217824507006
  0.0153512564566422  0.0849156767422250  0.5829724644176548
  0.7625404847218900  0.9046769996984013  0.5142565819317085
  0.7357527355427508  0.1048902254555481  0.8495759610410901
  0.4911579446176819  0.9151245293015514  0.7857711527693727
 
  0.00000000E+00  0.00000000E+00  0.00000000E+00
  0.00000000E+00  0.00000000E+00  0.00000000E+00
  0.00000000E+00  0.00000000E+00  0.00000000E+00
  0.00000000E+00  0.00000000E+00  0.00000000E+00
  0.00000000E+00  0.00000000E+00  0.00000000E+00
  0.00000000E+00  0.00000000E+00  0.00000000E+00
  0.00000000E+00  0.00000000E+00  0.00000000E+00
  0.00000000E+00  0.00000000E+00  0.00000000E+00
  0.00000000E+00  0.00000000E+00  0.00000000E+00
  0.00000000E+00  0.00000000E+00  0.00000000E+00
  0.00000000E+00  0.00000000E+00  0.00000000E+00
  0.00000000E+00  0.00000000E+00  0.00000000E+00
  0.00000000E+00  0.00000000E+00  0.00000000E+00
  0.00000000E+00  0.00000000E+00  0.00000000E+00
  0.00000000E+00  0.00000000E+00  0.00000000E+00
  0.00000000E+00  0.00000000E+00  0.00000000E+00
  0.00000000E+00  0.00000000E+00  0.00000000E+00
  0.00000000E+00  0.00000000E+00  0.00000000E+00
  0.00000000E+00  0.00000000E+00  0.00000000E+00
  0.00000000E+00  0.00000000E+00  0.00000000E+00
  0.00000000E+00  0.00000000E+00  0.00000000E+00
  0.00000000E+00  0.00000000E+00  0.00000000E+00
  0.00000000E+00  0.00000000E+00  0.00000000E+00
  0.00000000E+00  0.00000000E+00  0.00000000E+00
  0.00000000E+00  0.00000000E+00  0.00000000E+00
  0.00000000E+00  0.00000000E+00  0.00000000E+00
  0.00000000E+00  0.00000000E+00  0.00000000E+00
  0.00000000E+00  0.00000000E+00  0.00000000E+00
  0.00000000E+00  0.00000000E+00  0.00000000E+00
  0.00000000E+00  0.00000000E+00  0.00000000E+00
  0.00000000E+00  0.00000000E+00  0.00000000E+00
  0.00000000E+00  0.00000000E+00  0.00000000E+00
  0.00000000E+00  0.00000000E+00  0.00000000E+00
  0.00000000E+00  0.00000000E+00  0.00000000E+00
  0.00000000E+00  0.00000000E+00  0.00000000E+00
  0.00000000E+00  0.00000000E+00  0.00000000E+00
  0.00000000E+00  0.00000000E+00  0.00000000E+00
  0.00000000E+00  0.00000000E+00  0.00000000E+00
  0.00000000E+00  0.00000000E+00  0.00000000E+00
  0.00000000E+00  0.00000000E+00  0.00000000E+00
  0.00000000E+00  0.00000000E+00  0.00000000E+00
  0.00000000E+00  0.00000000E+00  0.00000000E+00
  0.00000000E+00  0.00000000E+00  0.00000000E+00
  0.00000000E+00  0.00000000E+00  0.00000000E+00
  0.00000000E+00  0.00000000E+00  0.00000000E+00
  0.00000000E+00  0.00000000E+00  0.00000000E+00
  0.00000000E+00  0.00000000E+00  0.00000000E+00
  0.00000000E+00  0.00000000E+00  0.00000000E+00
  0.00000000E+00  0.00000000E+00  0.00000000E+00
  0.00000000E+00  0.00000000E+00  0.00000000E+00
  0.00000000E+00  0.00000000E+00  0.00000000E+00
  0.00000000E+00  0.00000000E+00  0.00000000E+00
  0.00000000E+00  0.00000000E+00  0.00000000E+00
  0.00000000E+00  0.00000000E+00  0.00000000E+00
  0.00000000E+00  0.00000000E+00  0.00000000E+00
  0.00000000E+00  0.00000000E+00  0.00000000E+00
  0.00000000E+00  0.00000000E+00  0.00000000E+00
  0.00000000E+00  0.00000000E+00  0.00000000E+00
