Li Mg Bi  S  O 
 1.0000000000000000
    11.1784999999999997    0.0000000000000000    0.0000000000000000
     0.0000000000000000    9.5746000000000002    0.0000000000000000
     0.0000000000000000    0.0000000000000000   11.1823999999999995
 Li  Mg  Bi  S   O  
   6   5  16  16  16
Direct
  0.2743103070652907 -0.0012538567054387  0.4431612667720207
  0.6196267253880866  0.9978744116767502  0.4153544911162522
  0.9267946819278717 -0.0187231134682391  0.4536870436863451
  0.8654856658287514 -0.0030006244263981  0.1908054312357219
  0.5131798571584424  1.0080299725903838  0.7009056569748697
  0.8561878186243547  0.0060538826765982  0.6774362237733761
  0.1224526268484216  0.9948980485905023  0.1774495873999536
  0.6118888972696862  0.9869123514374106  0.1561311636180842
  0.3540481023882980 -0.0025800975138962  0.9449951411592673
  0.1234904412030038  0.9964708450559613  0.7087446255689763
  0.8832173199516017 -0.0085739078470211  0.9400235343821172
  0.0005241341308751  0.3055470550224973  0.0636311672349952
  0.2480467222926738  0.6864712848807935  0.0642856282947718
  0.2438239939489671  0.2992012039211623  0.3121970339149738
  0.5041195650655986  0.6843890264491354  0.3087772190618083
  0.4972900999728805  0.2970167659424410  0.0579445544993196
  0.7460007236905184  0.6821783072950043  0.0559231817233814
  0.7459672672309662  0.2997439074187561  0.3014248400665397
  0.9965350568325871  0.6920282473821249  0.3060027161722664
  0.0002069004126997  0.3006683938248789  0.5670802544726682
  0.2479215427129761  0.6923370206896843  0.5633906681552701
  0.2530174450793118  0.3080383478660295  0.8096738533252770
  0.4901062144932114  0.6876514969643969  0.8113786065006814
  0.5064550456180028  0.2852857585493451  0.5481942350281949
  0.7486893515158769  0.7136385985090342  0.5507058888007135
  0.7564635826201347  0.3016268100189927  0.8079390113620333
  0.9954852648275062  0.6817292341807097  0.8076929478888611
  0.2509983884511706  0.3415742286791950  0.0589082570101964
  0.0049607437978838  0.6444375716378152  0.0618516177227934
  0.4983240325481275  0.3421052949826475  0.3062832818028630
  0.2468576678247444  0.6736124104323943  0.3146406400210927
  0.7536015043438021  0.3512442418932777  0.0593945440031545
  0.4967336568108353  0.6484718126739997  0.0553491079885682
  1.0039612437609289  0.3458929511196145  0.3099065955140420
  0.7507054010937522  0.6389380808239873  0.3044650525690824
  0.2549287686253587  0.3234257663075691  0.5627234823973077
 -0.0039319565785172  0.6455881262456379  0.5619487354532184
  0.5144312318936400  0.2873634787834293  0.8105836609435403
  0.2475861636282509  0.6388617757325200  0.8110961369528042
  0.7533749751809429  0.3373979360751275  0.5556677248088315
  0.4986293226823552  0.6644175227818415  0.5640853131301017
  1.0047363713330382  0.3527252634507980  0.8084490739454595
  0.7437429022318367  0.6670244350221286  0.8142245273219643
  0.4849231702367647  0.0781632583132873  0.0577107299436818
  0.2354293535731796  0.9059343385599976  0.0588882432791970
  0.2237308755559571  0.0869473814974384  0.3010696629530790
 -0.0076230711246756  0.9109377543520079  0.2900399311222067
  0.9864562728672409  0.0817595008005142  0.0723566387877456
  0.7614982654265335  0.9056433974327025  0.0639307083126462
  0.7248808325336298  0.0857058926381844  0.2715932105938179
  0.5348915818188136  0.8928468160853310  0.2923597013374939
  0.5116320265803653  0.0736650877273152  0.5408929506307776
  0.2229819080837645  0.9033813411084355  0.5825649297254698
  0.2402473560058060  0.0898122058534827  0.8225634102163629
 -0.0103592147246563  0.9040782292680644  0.8087131225323371
  1.0014022568798326  0.0839275176597701  0.5919441740240596
  0.7750656687464718  0.9237027245867711  0.5331902895377705
  0.7899138691790564  0.0918994479486016  0.8188845466954843
  0.4606748980664215  0.8976616914966897  0.8282262614294645
