Li8 Mg4 Bi16 S16 O16                    
   1.00000000000000     
    11.2377257575021154   -0.0528260601006460    0.0275495589599299
    -0.0462960398196629    9.5664079138053388    0.0214121329048969
     0.0259674985008936    0.0288090146296678   11.2451519469706032
   Li   Mg   Bi   S    O 
     8     4    16    16    16
Direct
  0.1654699874587253  0.9716977265931018  0.2125142146147409
  0.8959694941317047  0.0256463491301167  0.3154340566224828
  0.4305524604936345  0.0259451641522792  0.2327891624269042
  0.1502897282164117  0.0198778910429897  0.9520558534562988
  0.3702968477580613  0.0031609198532416  0.9538266413588679
  0.1393261186458806  0.0266788839215005  0.5772693655258486
  0.3721157013536242  0.0066533292474895  0.6931456171275495
  0.6163215239711927 -0.0056451957701237  0.7001932938182406
  0.6272423861015415  0.0001797776686633  0.4548353666357224
  0.6214732884190991 -0.0004544001294979  0.9486846247469740
  0.8828881195966759 -0.0025234361565366  0.9442554939187257
  0.8650580495281475 -0.0029497538988987  0.6833111590254332
  0.0051588427365767  0.3104035525437412  0.0605923264565644
  0.2500494249789711  0.6961555796927466  0.0624434347997545
  0.2534440375505798  0.2937521939794620  0.3097516580453995
  0.5034417373427066  0.7003342511605466  0.3202430999749145
  0.4992234916878875  0.3066719955147994  0.0637319554464451
  0.7512787254109861  0.6877834825868527  0.0658249024874876
  0.7499347998485080  0.3077938667906407  0.3210368252340743
  0.0087362295363302  0.6985737908007990  0.3093661303682944
 -0.0009111933951625  0.3131133493542091  0.5636039872271256
  0.2551841617246972  0.7042652349524349  0.5668329016852419
  0.2552299841811498  0.3020935698938672  0.8163365408073470
  0.4990315937500986  0.6924918219289355  0.8186697497313049
  0.4980918336505148  0.3041596892140491  0.5654249324410827
  0.7500037638825309  0.6858456383996053  0.5652364375516759
  0.7524232360517541  0.3177550607837359  0.8166617271795988
 -0.0019768026245624  0.6863506482736199  0.8095046874661361
  0.2487924146890997  0.3566392433663652  0.0598946630385676
 -0.0018896878124616  0.6531032768816396  0.0577972901746096
  0.5030366337184150  0.3384032883850911  0.3132205725683839
  0.2541463660293226  0.6646157643523494  0.3114639748268321
  0.7478753348015565  0.3282149024940819  0.0587468771048306
  0.5030442986169403  0.6608524093991329  0.0608873229344436
  0.9985883893880446  0.2856258186343483  0.3084098094532196
  0.7539001561577148  0.6666186298173316  0.3150368633028037
  0.2473440628205901  0.2815710359356631  0.5635844110799977
 -0.0013731898674069  0.6779172412124975  0.5620100353560701
  0.5006548247826720  0.3542705128060631  0.8134051048977654
  0.2542866695712913  0.6523224125239486  0.8127692325777064
  0.7491657672664770  0.3610655857982439  0.5628258428110836
  0.5019223084169416  0.6458411726463401  0.5630259279220347
  0.9964564392140702  0.3579225543946192  0.8080746457454558
  0.7511563371062735  0.6316581139024074  0.8138796712066640
  0.4993126815943963  0.0887600751923398  0.0509745463101119
  0.2459707856288930  0.9105033988846003  0.0564258719847659
  0.2790365357494056  0.0908520637799707  0.2774036387723763
  0.0203523941541809  0.9070611487715083  0.2896032628970557
  0.0102406889153116  0.0992197603527579  0.0217096918814874
  0.7519081463060978  0.9022746794365650  0.0287596966335146
  0.7455908667737948  0.0968919380307212  0.3538501118488306
  0.5203105630170791  0.9116290451627362  0.3379495824467419
  0.5274902770021246  0.0911546577025710  0.5828649681858109
  0.2656225068625439  0.9105575190265446  0.5921417565543184
  0.2715992774897112  0.0898195218162088  0.8358636433284091
 -0.0420515163134602  0.9013017288813899  0.8099384117421481
  0.9826988469800514  0.1003991185698806  0.5897167520771326
  0.7320343619503903  0.9093711875063760  0.5877539947302536
  0.7541574607413152  0.0825654555259111  0.8229509390456349
  0.5132714262603577  0.9149157572854005  0.8260847403807378
 
  0.00000000E+00  0.00000000E+00  0.00000000E+00
  0.00000000E+00  0.00000000E+00  0.00000000E+00
  0.00000000E+00  0.00000000E+00  0.00000000E+00
  0.00000000E+00  0.00000000E+00  0.00000000E+00
  0.00000000E+00  0.00000000E+00  0.00000000E+00
  0.00000000E+00  0.00000000E+00  0.00000000E+00
  0.00000000E+00  0.00000000E+00  0.00000000E+00
  0.00000000E+00  0.00000000E+00  0.00000000E+00
  0.00000000E+00  0.00000000E+00  0.00000000E+00
  0.00000000E+00  0.00000000E+00  0.00000000E+00
  0.00000000E+00  0.00000000E+00  0.00000000E+00
  0.00000000E+00  0.00000000E+00  0.00000000E+00
  0.00000000E+00  0.00000000E+00  0.00000000E+00
  0.00000000E+00  0.00000000E+00  0.00000000E+00
  0.00000000E+00  0.00000000E+00  0.00000000E+00
  0.00000000E+00  0.00000000E+00  0.00000000E+00
  0.00000000E+00  0.00000000E+00  0.00000000E+00
  0.00000000E+00  0.00000000E+00  0.00000000E+00
  0.00000000E+00  0.00000000E+00  0.00000000E+00
  0.00000000E+00  0.00000000E+00  0.00000000E+00
  0.00000000E+00  0.00000000E+00  0.00000000E+00
  0.00000000E+00  0.00000000E+00  0.00000000E+00
  0.00000000E+00  0.00000000E+00  0.00000000E+00
  0.00000000E+00  0.00000000E+00  0.00000000E+00
  0.00000000E+00  0.00000000E+00  0.00000000E+00
  0.00000000E+00  0.00000000E+00  0.00000000E+00
  0.00000000E+00  0.00000000E+00  0.00000000E+00
  0.00000000E+00  0.00000000E+00  0.00000000E+00
  0.00000000E+00  0.00000000E+00  0.00000000E+00
  0.00000000E+00  0.00000000E+00  0.00000000E+00
  0.00000000E+00  0.00000000E+00  0.00000000E+00
  0.00000000E+00  0.00000000E+00  0.00000000E+00
  0.00000000E+00  0.00000000E+00  0.00000000E+00
  0.00000000E+00  0.00000000E+00  0.00000000E+00
  0.00000000E+00  0.00000000E+00  0.00000000E+00
  0.00000000E+00  0.00000000E+00  0.00000000E+00
  0.00000000E+00  0.00000000E+00  0.00000000E+00
  0.00000000E+00  0.00000000E+00  0.00000000E+00
  0.00000000E+00  0.00000000E+00  0.00000000E+00
  0.00000000E+00  0.00000000E+00  0.00000000E+00
  0.00000000E+00  0.00000000E+00  0.00000000E+00
  0.00000000E+00  0.00000000E+00  0.00000000E+00
  0.00000000E+00  0.00000000E+00  0.00000000E+00
  0.00000000E+00  0.00000000E+00  0.00000000E+00
  0.00000000E+00  0.00000000E+00  0.00000000E+00
  0.00000000E+00  0.00000000E+00  0.00000000E+00
  0.00000000E+00  0.00000000E+00  0.00000000E+00
  0.00000000E+00  0.00000000E+00  0.00000000E+00
  0.00000000E+00  0.00000000E+00  0.00000000E+00
  0.00000000E+00  0.00000000E+00  0.00000000E+00
  0.00000000E+00  0.00000000E+00  0.00000000E+00
  0.00000000E+00  0.00000000E+00  0.00000000E+00
  0.00000000E+00  0.00000000E+00  0.00000000E+00
  0.00000000E+00  0.00000000E+00  0.00000000E+00
  0.00000000E+00  0.00000000E+00  0.00000000E+00
  0.00000000E+00  0.00000000E+00  0.00000000E+00
  0.00000000E+00  0.00000000E+00  0.00000000E+00
  0.00000000E+00  0.00000000E+00  0.00000000E+00
  0.00000000E+00  0.00000000E+00  0.00000000E+00
  0.00000000E+00  0.00000000E+00  0.00000000E+00
