Li2 Mg7 Bi16 S16 O16                    
   1.00000000000000     
    11.1868723989909054   -0.1478516220697241   -0.0403327625287583
    -0.1209016213144729    9.5410804950733201    0.1053746280451351
    -0.0325225181277747    0.1185935248203985   11.2924867317827857
   Li   Mg   Bi   S    O 
     2     7    16    16    16
Direct
  0.2301005664923217  0.0537272027979375  0.9776987312662295
  0.8794688172379832  0.0228040419780373  0.5407985505087409
  0.5624517926099740  0.0427056963843284  0.2387725741951363
  0.8597066843342611  0.0157874071872240  0.1657198858259503
  0.1193992435753830  0.0225758468861421  0.7051564147453003
  0.3811570753182234  0.0153303110554594  0.7227767333235505
  0.6176075762432217 -0.0031851679807191  0.9493741784709144
  0.8826735722471125  0.0177254074579515  0.9075149519485717
  0.6423298674177470  0.0198663586184320  0.6852909183033637
  0.0054244639003882  0.3327547508832264  0.0606281493993456
  0.2552704596383126  0.7217250822012918  0.0770774902335818
  0.1681647240932674  0.0354588317418938  0.2767883360210055
  0.4957082702012325  0.6813911598872709  0.3094229214122390
  0.4918882783176839  0.3170944177682474  0.0695060875496355
  0.7592596384791894  0.6880926773312142  0.0632187795854724
  0.7498167174138443  0.3076009660006583  0.3043252095276721
  0.0230243139637914  0.7175028902038184  0.3154393320897846
  0.0195143869521290  0.3240248095134963  0.5498789433874048
  0.2479585754538318  0.7377524943797458  0.5448233254282154
  0.2516149279554275  0.3360722293814671  0.8150629176030536
  0.5005314287897764  0.6857787845815450  0.8105986743571385
  0.4949127661117901  0.3141291354435170  0.5534362328724965
  0.7487365860105836  0.7042698270579695  0.5604537262119273
  0.7515203786479878  0.3291614369188449  0.8073913934517333
  0.0093420104267482  0.7001864818560122  0.8115806607044956
  0.2438777050868147  0.2883881366627564  0.0628804873017484
  0.0168972696841276  0.6616725063811701  0.0561378260298069
  0.4934993926976832  0.2745957156033627  0.3173619749671789
  0.2664521626464361  0.5812660651256972  0.2783478165312547
  0.7435738356367322  0.3785159885157366  0.0668160539238430
  0.5192117467612344  0.7022403744170631  0.0517214689166424
  0.9948259999021501  0.3014058756747659  0.3078521532362561
  0.7670789246655514  0.6938844256609173  0.3042391824098092
  0.2559211476436231  0.3622441815680554  0.5719651071261637
  0.0087372315797965  0.6700258881011122  0.5611111691621258
  0.5015885419872183  0.3641292326643507  0.8247525326374164
  0.2611414769126164  0.6608843432012204  0.8139779622701304
  0.7512968174730155  0.3036853442018631  0.5706832670507110
  0.5102101215537421  0.6613631020667498  0.5596207343516170
  0.9987594136225529  0.3505226098216965  0.8114815884682041
  0.7623940758805604  0.6513885253200727  0.8060208980719531
  0.5308187552900552  0.1016580015177565  0.0681012793020839
  0.2256950119679677  0.9361566118155112  0.1168473661804346
  0.1742830503318612 -0.1456499296519702  0.3899178539448404
 -0.0070352925291596  0.9351922225126469  0.2594021488971254
  0.9529397145555032  0.1207214249955223  0.0420588510752574
  0.7695142224066127  0.9180603862561189  0.0290096232345868
  0.7346338414004122  0.0930635910984090  0.2647376510014741
  0.4694876445580514  0.8892999710441069  0.3039981155741492
  0.4988890755311320  0.1088808647694930  0.6187690446313676
  0.2526273630869714  0.9238181936799698  0.6327425452027620
  0.2504672749986753  0.1067679849984187  0.8119299604742227
  0.0031413598008442  0.9219412013233921  0.8131760576081682
  0.0207559587195387  0.1096738781040176  0.5818393556907333
  0.7487234650753659  0.9168395607796417  0.5857121353374179
  0.7333153586355905  0.0974408257292605  0.8292780636444265
  0.5225242106045036  0.9194698165060861  0.8067646073231601
 
  0.00000000E+00  0.00000000E+00  0.00000000E+00
  0.00000000E+00  0.00000000E+00  0.00000000E+00
  0.00000000E+00  0.00000000E+00  0.00000000E+00
  0.00000000E+00  0.00000000E+00  0.00000000E+00
  0.00000000E+00  0.00000000E+00  0.00000000E+00
  0.00000000E+00  0.00000000E+00  0.00000000E+00
  0.00000000E+00  0.00000000E+00  0.00000000E+00
  0.00000000E+00  0.00000000E+00  0.00000000E+00
  0.00000000E+00  0.00000000E+00  0.00000000E+00
  0.00000000E+00  0.00000000E+00  0.00000000E+00
  0.00000000E+00  0.00000000E+00  0.00000000E+00
  0.00000000E+00  0.00000000E+00  0.00000000E+00
  0.00000000E+00  0.00000000E+00  0.00000000E+00
  0.00000000E+00  0.00000000E+00  0.00000000E+00
  0.00000000E+00  0.00000000E+00  0.00000000E+00
  0.00000000E+00  0.00000000E+00  0.00000000E+00
  0.00000000E+00  0.00000000E+00  0.00000000E+00
  0.00000000E+00  0.00000000E+00  0.00000000E+00
  0.00000000E+00  0.00000000E+00  0.00000000E+00
  0.00000000E+00  0.00000000E+00  0.00000000E+00
  0.00000000E+00  0.00000000E+00  0.00000000E+00
  0.00000000E+00  0.00000000E+00  0.00000000E+00
  0.00000000E+00  0.00000000E+00  0.00000000E+00
  0.00000000E+00  0.00000000E+00  0.00000000E+00
  0.00000000E+00  0.00000000E+00  0.00000000E+00
  0.00000000E+00  0.00000000E+00  0.00000000E+00
  0.00000000E+00  0.00000000E+00  0.00000000E+00
  0.00000000E+00  0.00000000E+00  0.00000000E+00
  0.00000000E+00  0.00000000E+00  0.00000000E+00
  0.00000000E+00  0.00000000E+00  0.00000000E+00
  0.00000000E+00  0.00000000E+00  0.00000000E+00
  0.00000000E+00  0.00000000E+00  0.00000000E+00
  0.00000000E+00  0.00000000E+00  0.00000000E+00
  0.00000000E+00  0.00000000E+00  0.00000000E+00
  0.00000000E+00  0.00000000E+00  0.00000000E+00
  0.00000000E+00  0.00000000E+00  0.00000000E+00
  0.00000000E+00  0.00000000E+00  0.00000000E+00
  0.00000000E+00  0.00000000E+00  0.00000000E+00
  0.00000000E+00  0.00000000E+00  0.00000000E+00
  0.00000000E+00  0.00000000E+00  0.00000000E+00
  0.00000000E+00  0.00000000E+00  0.00000000E+00
  0.00000000E+00  0.00000000E+00  0.00000000E+00
  0.00000000E+00  0.00000000E+00  0.00000000E+00
  0.00000000E+00  0.00000000E+00  0.00000000E+00
  0.00000000E+00  0.00000000E+00  0.00000000E+00
  0.00000000E+00  0.00000000E+00  0.00000000E+00
  0.00000000E+00  0.00000000E+00  0.00000000E+00
  0.00000000E+00  0.00000000E+00  0.00000000E+00
  0.00000000E+00  0.00000000E+00  0.00000000E+00
  0.00000000E+00  0.00000000E+00  0.00000000E+00
  0.00000000E+00  0.00000000E+00  0.00000000E+00
  0.00000000E+00  0.00000000E+00  0.00000000E+00
  0.00000000E+00  0.00000000E+00  0.00000000E+00
  0.00000000E+00  0.00000000E+00  0.00000000E+00
  0.00000000E+00  0.00000000E+00  0.00000000E+00
  0.00000000E+00  0.00000000E+00  0.00000000E+00
  0.00000000E+00  0.00000000E+00  0.00000000E+00
