Li Mg Bi  S  O 
 1.0000000000000000
    11.1784999999999997    0.0000000000000000    0.0000000000000000
     0.0000000000000000    9.5746000000000002    0.0000000000000000
     0.0000000000000000    0.0000000000000000   11.1823999999999995
 Li  Mg  Bi  S   O  
  10   3  16  16  16
Direct
  0.3611907474262620  0.0163679637868266  0.5391904774070932
  0.3819561057712957  0.0076596724078191  0.1948169196028239
  0.6314091283103314  1.0035715015859150  0.4370427737787747
  0.9016811682175223 -0.0011228501927204  0.4373405204517907
  0.6342130799429285  0.9962991010729708  0.1928657160798130
  0.8705394438127708  0.0017525265295751  0.1828039677158234
  0.6260163914112972  0.9964806290401087  0.9366373094683353
  0.9053935229963431  0.0030985688477355  0.9291293353882457
  0.6101899327172607  1.0061588489770050  0.6918020959766107
  0.8667451016382212 -0.0028555941041361  0.6827586398601896
  0.1251149194126740  0.9994195296406648  0.1715516367992389
  0.3617363737275782 -0.0023901972608066  0.9309964103553454
  0.1233455148499243  1.0029485245150989  0.6973376631715557
 -0.0033372262848417  0.3058501069832297  0.0605914059437444
  0.2540537633400606  0.6885415126399341  0.0624847150042646
  0.2465526253662690  0.3088792202107705  0.3065168222020496
  0.5042049490664501  0.7095636923433910  0.3098355115254831
  0.4976487048130165  0.3041025819562265  0.0587799739960110
  0.7493617787428336  0.7066738389586380  0.0599525111587427
  0.7496996133382667  0.2970742909538370  0.3107657884219073
  1.0016261774155977  0.6995015056827011  0.3039628565268086
 -0.0012038281872840  0.3014391557648392  0.5631348548825129
  0.2474241245772522  0.6960638697969005  0.5631737456968892
  0.2493449387085921  0.3060911100900680  0.8110553260815988
  0.5012003115293147  0.6964929886280066  0.8120679012046689
  0.5011076815677712  0.3033144097457319  0.5547567591283004
  0.7515991902592304  0.7036795093305890  0.5574318746790102
  0.7464646547866680  0.2926433722535370  0.8077429725100869
  0.9952370418850195  0.6935616396002453  0.8057708006328437
  0.2498764558922734  0.3584789422097004  0.0588194596579508
  0.0002660857095397  0.6616581880020104  0.0574977544790895
  0.5002266945662873  0.3459248702273983  0.3094557305240910
  0.2485125288839279  0.6672611735782731  0.3078863190357195
  0.7489944053813143  0.3424626114462225  0.0590129158523083
  0.5015127446870469  0.6495762745787668  0.0601679731102376
  0.9986035212160185  0.3438305185260447  0.3113944480043356
  0.7533444330382005  0.6534320730691493  0.3105159925965554
  0.2514238928378255  0.2961610807381914  0.5564872083754206
  0.0045500768200379  0.6442742623066510  0.5638037132551676
  0.4951876595351081  0.3429661013165799  0.8084026613024821
  0.2533675728477972  0.6539189734517252  0.8122137269480534
  0.7498990321294053  0.3497242850869726  0.5605887424995672
  0.4992278692456278  0.6713308273257228  0.5594352416631745
  1.0004156205331587  0.3416970046737302  0.8114201803776167
  0.7490476958906782  0.6543524069425738  0.8095208053575601
  0.4841785912835340  0.0841920072624423  0.0479336504467193
  0.2609631040399152  0.9120738990023318  0.0675688261874447
  0.2448425289807667  0.1000233909162679  0.2669488972163811
 -0.0031551254867123  0.9161515900372909  0.2839588591118883
  0.9951966545604509  0.0873429666592308  0.0698053907987677
  0.7456633267683993  0.9237031260328810  0.0638939705528049
  0.7550175426058900  0.0801410980721586  0.3101922936292502
  0.5149592483565263  0.9229183317131021  0.2986865312340864
  0.5187218533806067  0.0887291185574002  0.5582725948645347
  0.2351923924348572  0.9075371004899918  0.5872629606401211
  0.2428432642595022  0.0863510437683954  0.8183296826021919
 -0.0097286248585785  0.9121074133572263  0.7930620990202167
  0.9933459623973576  0.0854180551209168  0.5843452800630766
  0.7584126071502328  0.9195475104966734  0.5536033479699810
  0.7449610831961251  0.0758116256147948  0.8076076929268402
  0.4996479654134292  0.9138896681021013  0.8317386966233389
