Li Mg Bi  S  O 
 1.0000000000000000
    11.1784999999999997    0.0000000000000000    0.0000000000000000
     0.0000000000000000    9.5746000000000002    0.0000000000000000
     0.0000000000000000    0.0000000000000000   11.1823999999999995
 Li  Mg  Bi  S   O  
   2   7  16  16  16
Direct
  0.8976404485319390  0.0048192890956334  0.4294939367597243
  0.7902703801565808 -0.0126678148236400  0.1994004464957969
  0.1187679323399155  0.9967876140880899  0.1789130113496395
  0.3979828904138621 -0.0045717500722312  0.1775753948512428
  0.6215096335583256  0.9972966222294329  0.4491955612368516
  0.1388830587278237  0.9900295075587685  0.9105243421310124
  0.3991146894441903  0.0026359358324371  0.6943434926988834
  0.6242927081503605  1.0008302086465217  0.9326279783333085
  0.8641777402790629 -0.0082240876087373  0.6997499249588527
  0.0130896154838953  0.3081216785439596  0.0491999782079991
  0.2518343980280302  0.6717530607212562  0.0626768242651184
  0.2470884608571882  0.3035258910708297  0.2992397975689999
  0.4993172831358249  0.6928069779547474  0.3159733179300468
  0.5056108624577463  0.3051619793876611  0.0616573926009924
  0.7481746694409909  0.6978171766575387  0.0652943282271586
  0.7546644756337341  0.3054960923700945  0.3154486146756977
  1.0028643215561674  0.7011175039865061  0.3065204425684927
 -0.0007452184872200  0.2954587207318710  0.5639269994880354
  0.2569641226458353  0.7073146835536651  0.5671801818327318
  0.2602386632319050  0.2984883512868091  0.8028809751372573
  0.5076170931549138  0.6912917766048390  0.8135581141852527
  0.5042397438623243  0.3086512830783721  0.5584538914872461
  0.7550407314983247  0.6854302877943111  0.5601153541868343
  0.7537317769028805  0.3036233988277413  0.8149157660864907
  0.9995089397909109  0.6862121578257874  0.8087598318577198
  0.2526867043886047  0.3640864784910359  0.0579389058969030
  0.0040376013086528  0.6485284823544116  0.0541484386614566
  0.5031419015439705  0.3373755154775404  0.3113447032489857
  0.2488752490230992  0.6619006481538903  0.3076243590449341
  0.7509791376272508  0.3274999055764072  0.0614233328702568
  0.5096221575674006  0.6506991981160404  0.0713100151227513
  1.0020849511850236  0.3275248108470438  0.3070011117098607
  0.7578003857089358  0.6542316521329010  0.3140381462035065
  0.2508581243769177  0.3212536056102579  0.5615546909007452
  0.0023926059626584  0.6554057687446462  0.5654509227668614
  0.5022848984799632  0.3449238393365852  0.8147029528719536
  0.2696491699458922  0.6574250298871956  0.8155469076259076
  0.7476581666830968  0.3569110426999620  0.5628004902324264
  0.5031604019838999  0.6493098163845397  0.5591939198119619
  1.0023532255406316  0.3419860325295347  0.8077757162810115
  0.7518681216956529  0.6574818150421522  0.8112769435948863
  0.5030375646344387  0.0854409806469445  0.0523985922386752
  0.2372072445024651  0.8972007803111249  0.0661957490922502
  0.2578944913700229  0.0932614393216078  0.2518245004546047
 -0.0108226982491544  0.9165919217616695  0.2826443696762594
  1.0533838407735949  0.0961882394844593  0.0387510034747706
  0.7295959657571213  0.9103133940038188  0.0575321129312560
  0.7489756622708528  0.0882672624800570  0.3419833663452130
  0.5082312485439274  0.9116119951711155  0.3110382699590942
  0.5146270469540830  0.0906332386744929  0.5705656264735693
  0.2882120655230668  0.9105501965131497  0.5858642932310342
  0.2682444124682422  0.0806021713072705  0.8111596934468213
  0.0011673848594894  0.9051515819238038  0.8082784836061194
  0.9569630266404779  0.0889853098713775  0.5737168452605073
  0.7578067001855153  0.9069752962469234  0.5554358222314584
  0.7474487071944356  0.0853618109329348  0.8141812638067988
  0.5126301952860981  0.9099765993688959  0.8123216193240289
