Li12 Mg2 Bi16 S16 O16                   
   1.00000000000000     
    11.1287554514274110   -0.0223734204134292    0.0177082609587082
    -0.0181810346553644    9.4433224579259711   -0.0116185146369486
     0.0176377073201688   -0.0144231777397148   11.1410724094629519
   Li   Mg   Bi   S    O 
    12     2    16    16    16
Direct
  0.3522738807280495 -0.0012300511461314  0.4304846656893855
  0.1214316597594152  0.0017566405012062  0.1973187482169313
  0.3755814684313827  0.0015278734722393  0.1830440606642904
  0.8983544914406105 -0.0088339147339614  0.4431781887765171
  0.6261431565448186  0.0012357588470154  0.1851618615406803
  0.8716257254160669 -0.0008424118145377  0.1854622605843252
  0.1249395211358947  0.9977336572828601  0.9368850530633517
  0.3727292690123654 -0.0016925104200479  0.9429538619887179
  0.1173513047020458  0.9952221656759938  0.6798032856017574
  0.6268659597085244 -0.0019282939360325  0.9245941087744631
  0.8802105143294714 -0.0000660102780082  0.9382447803334915
  0.8550235284117250  0.0036999874214194  0.6852585848423565
  0.6226996705967748  0.0029421626865567  0.4446592222050190
  0.3893405458473714  0.0045550069041060  0.6897460227323211
  0.0000438472771951  0.2993070362364897  0.0627153017757248
  0.2494708737792371  0.7002434840617218  0.0621797739661221
  0.2488478370291642  0.2974500979351614  0.3096943960452611
  0.5005204906338586  0.6929714003993401  0.3127642644295324
  0.4999377530276347  0.2984499306299776  0.0629475094034272
  0.7515612163272805  0.7007704962334266  0.0628864921669318
  0.7488342816034856  0.3095058148809404  0.3120323762097433
 -0.0009531891971649  0.7030737056872247  0.3105387741130293
 -0.0018872713808660  0.2943136165437196  0.5648406832768157
  0.2505948876882004  0.6963718260040266  0.5640802585407306
  0.2509791548628222  0.3078485098750308  0.8122789290155126
  0.5005880722208650  0.6947575828616558  0.8155947569741795
  0.4986663130191147  0.3146706893899055  0.5608447246349257
  0.7530291191034491  0.6956140625096896  0.5610000535048680
  0.7537889265586053  0.2962236318202171  0.8152153365752266
  0.0018206825084422  0.6985893184990740  0.8140416139371075
  0.2503546663138651  0.3478799216922825  0.0624260433747097
  0.0009510950022520  0.6502556561211891  0.0631162588560658
  0.4986991228081628  0.3532440943893873  0.3122549317784106
  0.2516998194359512  0.6708596097768674  0.3127041002278452
  0.7488892177861279  0.3473014796683902  0.0618187128759076
  0.5009166778694041  0.6551371759174008  0.0629224529708699
 -0.0012799700913841  0.3314966322415865  0.3119700147411866
  0.7498539331600830  0.6470209677472956  0.3135167942033223
  0.2506487407164417  0.3417526843140587  0.5630584333981946
  0.0008196146943982  0.6643969478223237  0.5628905063751225
  0.4996649692874590  0.3366106225894462  0.8111020000663199
  0.2526454458507418  0.6462287670010092  0.8121177230498969
  0.7484413258915420  0.3413237446179012  0.5612983922797649
  0.5014024853749003  0.6566740166976200  0.5631365859059180
  0.0001766078828891  0.3497652558308927  0.8119277004132234
  0.7511145221545001  0.6686796190486431  0.8134297734645507
  0.4998338037017399  0.0777204163049419  0.0647208405974669
  0.2497387327627340  0.9205854330587765  0.0575595242600946
  0.2628677698868628  0.0816043895263650  0.2960016421121180
 -0.0164824881065151  0.9186742540619407  0.2982163368396618
  0.0010147577605517  0.0791721361409004  0.0608078595708736
  0.7500995456789523  0.9210682403127627  0.0664594781523375
  0.7323299458388699  0.0868254598213239  0.3151787765722858
  0.5083908786137120  0.9170685372940380  0.3206188108948681
  0.4893309037961842  0.0874230808184897  0.5504936712399287
  0.2687830394085271  0.9152085983080133  0.5811562421168578
  0.2616927191342249  0.0840002038660980  0.8068496296164280
  0.0091434011197647  0.9178950924839145  0.8182300477565955
  0.9845565081456050  0.0789921871268914  0.5811747082466476
  0.7550291841574195  0.9156468714991368  0.5408003370674390
  0.7634031618645598  0.0800848010323451  0.8265397787337296
  0.4848561709736363  0.9155618388374592  0.8213919426586410
 
  0.00000000E+00  0.00000000E+00  0.00000000E+00
  0.00000000E+00  0.00000000E+00  0.00000000E+00
  0.00000000E+00  0.00000000E+00  0.00000000E+00
  0.00000000E+00  0.00000000E+00  0.00000000E+00
  0.00000000E+00  0.00000000E+00  0.00000000E+00
  0.00000000E+00  0.00000000E+00  0.00000000E+00
  0.00000000E+00  0.00000000E+00  0.00000000E+00
  0.00000000E+00  0.00000000E+00  0.00000000E+00
  0.00000000E+00  0.00000000E+00  0.00000000E+00
  0.00000000E+00  0.00000000E+00  0.00000000E+00
  0.00000000E+00  0.00000000E+00  0.00000000E+00
  0.00000000E+00  0.00000000E+00  0.00000000E+00
  0.00000000E+00  0.00000000E+00  0.00000000E+00
  0.00000000E+00  0.00000000E+00  0.00000000E+00
  0.00000000E+00  0.00000000E+00  0.00000000E+00
  0.00000000E+00  0.00000000E+00  0.00000000E+00
  0.00000000E+00  0.00000000E+00  0.00000000E+00
  0.00000000E+00  0.00000000E+00  0.00000000E+00
  0.00000000E+00  0.00000000E+00  0.00000000E+00
  0.00000000E+00  0.00000000E+00  0.00000000E+00
  0.00000000E+00  0.00000000E+00  0.00000000E+00
  0.00000000E+00  0.00000000E+00  0.00000000E+00
  0.00000000E+00  0.00000000E+00  0.00000000E+00
  0.00000000E+00  0.00000000E+00  0.00000000E+00
  0.00000000E+00  0.00000000E+00  0.00000000E+00
  0.00000000E+00  0.00000000E+00  0.00000000E+00
  0.00000000E+00  0.00000000E+00  0.00000000E+00
  0.00000000E+00  0.00000000E+00  0.00000000E+00
  0.00000000E+00  0.00000000E+00  0.00000000E+00
  0.00000000E+00  0.00000000E+00  0.00000000E+00
  0.00000000E+00  0.00000000E+00  0.00000000E+00
  0.00000000E+00  0.00000000E+00  0.00000000E+00
  0.00000000E+00  0.00000000E+00  0.00000000E+00
  0.00000000E+00  0.00000000E+00  0.00000000E+00
  0.00000000E+00  0.00000000E+00  0.00000000E+00
  0.00000000E+00  0.00000000E+00  0.00000000E+00
  0.00000000E+00  0.00000000E+00  0.00000000E+00
  0.00000000E+00  0.00000000E+00  0.00000000E+00
  0.00000000E+00  0.00000000E+00  0.00000000E+00
  0.00000000E+00  0.00000000E+00  0.00000000E+00
  0.00000000E+00  0.00000000E+00  0.00000000E+00
  0.00000000E+00  0.00000000E+00  0.00000000E+00
  0.00000000E+00  0.00000000E+00  0.00000000E+00
  0.00000000E+00  0.00000000E+00  0.00000000E+00
  0.00000000E+00  0.00000000E+00  0.00000000E+00
  0.00000000E+00  0.00000000E+00  0.00000000E+00
  0.00000000E+00  0.00000000E+00  0.00000000E+00
  0.00000000E+00  0.00000000E+00  0.00000000E+00
  0.00000000E+00  0.00000000E+00  0.00000000E+00
  0.00000000E+00  0.00000000E+00  0.00000000E+00
  0.00000000E+00  0.00000000E+00  0.00000000E+00
  0.00000000E+00  0.00000000E+00  0.00000000E+00
  0.00000000E+00  0.00000000E+00  0.00000000E+00
  0.00000000E+00  0.00000000E+00  0.00000000E+00
  0.00000000E+00  0.00000000E+00  0.00000000E+00
  0.00000000E+00  0.00000000E+00  0.00000000E+00
  0.00000000E+00  0.00000000E+00  0.00000000E+00
  0.00000000E+00  0.00000000E+00  0.00000000E+00
  0.00000000E+00  0.00000000E+00  0.00000000E+00
  0.00000000E+00  0.00000000E+00  0.00000000E+00
  0.00000000E+00  0.00000000E+00  0.00000000E+00
  0.00000000E+00  0.00000000E+00  0.00000000E+00
