Li Mg Bi  S  O 
 1.0000000000000000
    11.1784999999999997    0.0000000000000000    0.0000000000000000
     0.0000000000000000    9.5746000000000002    0.0000000000000000
     0.0000000000000000    0.0000000000000000   11.1823999999999995
 Li  Mg  Bi  S   O  
   4   6  16  16  16
Direct
  0.4038575906158897 -0.0095193030953009  0.3314629681297593
  0.8040318537833523 -0.1007423572610802  0.1854339351462505
  0.3651530739410515 -0.0860036018362821  0.7259550482544084
  0.6624392161082382  0.9099141093376595  0.7075593548169872
  0.2300329755522411  0.9515038267511983  0.1691360482598571
  0.9405412399727470 -0.1676971379824590  0.4368144391435361
  0.6039299996902625  0.9379445312549498  0.0919090659835575
  0.3719591151724536 -0.0104358635774685  0.9461661976007858
  0.1317326584335365  0.8747026702221375  0.6874223397068142
  0.9040944594171807 -0.1048078794836016  0.9039333002408263
 -0.0500469344784558  0.2433632766249973 -0.0080720826179614
  0.2952543242333839  0.6730283621239261  0.0151860180470816
  0.2267355747389448  0.2623660393215372  0.2767293977810044
  0.4512889488105046  0.6848603629073775  0.3400175329612962
  0.4833261972180074  0.2923236484184146  0.0313418458789516
  0.7303613801318725  0.6254108342757451  0.0479192554433243
  0.6974382615833049  0.2324513919523910  0.2844037023611868
  1.0029303930884239  0.5877428258905462  0.2577628854257083
 -0.0178406500709769  0.1488616794687228  0.5425246098175306
  0.2401543628850694  0.5536960609957626  0.5678781144336208
  0.2117212731525188  0.2309422912091077  0.8236593525418291
  0.4853964303838167  0.6121938777651549  0.7699536341713610
  0.4106315246449933  0.1746701412593707  0.5485704393948738
  0.7707658603613028  0.5591981983758425  0.5221018341065710
  0.6778106184817542  0.2164189091754915  0.7305750526760306
  0.9736337834434692  0.5547404927004378  0.7834453318949415
  0.2092236238526446  0.2997106468306652  0.0507507008174659
 -0.0463949414138909  0.5467273002987684  0.0278628307331662
  0.4573361543035981  0.2656559866185423  0.3237588330142481
  0.2224105354454005  0.6809572800843610  0.2318663482016134
  0.7219740719334466  0.2938172157333303  0.0544439489201588
  0.5040338310414166  0.5643205818031506  0.0692892620182717
  0.9779615708148153  0.2411034435621112  0.2777994782674093
  0.7147610520179557  0.6212497594321804  0.3073354049709962
  0.1920014552428636  0.2466873242277179  0.5807958955470357
  0.0093050521013182  0.5529532096062585  0.4833116595264753
  0.4480556215998287  0.2831063652253035  0.7950600424261060
  0.2200826297527921  0.5469576602923156  0.8115488539342240
  0.7246549814340583  0.1365785053442998  0.5064846439757117
  0.4858809837874122  0.5240946757860776  0.5534407750431279
  0.9011344183808701  0.2941385906323214  0.7633972498288965
  0.7059338158577279  0.6794317266790325  0.7896591308581361
  0.5326448199062808  0.0638281076999544 -0.0322075229995157
  0.3560776827530120  1.0455941440225318  0.1173514642298375
  0.2357470356144343  0.0465171149555588  0.3235741604790077
 -0.0338592452999223  0.7808857826788229  0.2405481115080282
  1.0157520234671602  0.0710453376902136  0.0455756269769388
  0.7723024936907092  0.8320055519431436  0.0304053150056952
  0.6966300355354096  0.0414339733107559  0.2077518968778342
  0.4954434412275727  0.8605937647976877  0.2514860848351350
  0.4807951558268104  0.0046272876903086  0.6356683844819264
  0.2587865985420725  0.7718221105823562  0.6116992567537611
  0.2401486868158305  0.0176568334188911  0.8176106603829416
  0.0433501433072214  0.7945413552011368  0.8177387509086331
  1.0355082078560263 -0.0511976453108986  0.5476626341788192
  0.8324097512875385  0.8023542968190721  0.5468911278868434
  0.7851334890844190 -0.0002356146324123  0.7919442084688140
  0.3786380872754740  0.8004399085138943  0.8874486869182806
