Li10 Mg3 Bi16 S16 O16                   
   1.00000000000000     
    11.2192555976311219   -0.0046660290516120    0.0334739800851271
    -0.0053106326874078    9.5252644712455119    0.0401356837260100
     0.0334060272305482    0.0484282390320113   11.1798122542957401
   Li   Mg   Bi   S    O 
    10     3    16    16    16
Direct
  0.3399353879491784 -0.0225271221658284  0.4223940921242797
  0.2272152735998283 -0.0108593899526577  0.1819633923028015
  0.6112168665878357  0.0019246954533728  0.4353038626112467
  0.5829000796345516  0.9795111283158729  0.1759340478854559
  0.1693484484530093 -0.0283316796445969  0.8981256795745060
  0.3910590822922132 -0.0003926862420250  0.9394724664062197
  0.0941985070061208  0.9712014907389100  0.6409047160888134
  0.3777256675549956  0.0004846250681063  0.6915026960902996
  0.6363523419420263  0.0040046427776260  0.9483015114177987
  0.9142428297302696  0.0369170787959903  0.8907899103301358
  0.8687141184313467 -0.0041416591379483  0.4498051953900644
  0.8559627140367855  0.0016025790899216  0.1830437124428673
  0.6398969639476654 -0.0010273478178747  0.6912206710221395
 -0.0082694434976796  0.3058547143031171  0.0648077957919972
  0.2494535608732955  0.6901537220243048  0.0609455517048182
  0.2512020347850837  0.3016067749262270  0.3176052591236450
  0.4955358872280742  0.6969877154983616  0.3174730033310754
  0.4952080007932884  0.2959817902281576  0.0654447719079891
  0.7431330507725188  0.6915753330064131  0.0698913470722958
  0.7491009723891416  0.3168535057017230  0.3181495699980090
 -0.0041406357536548  0.6921442612016651  0.3131996673180097
  0.0009163674521713  0.2994221219194649  0.5639089641008832
  0.2516134353009805  0.6977762989542079  0.5663091289709753
  0.2557091519292433  0.2983640450967150  0.8177080318711748
  0.5018386640203217  0.6942885694804635  0.8155966621478620
  0.5004168098925785  0.3066229606014276  0.5683617777509340
  0.7475580792103624  0.6885847240986991  0.5652615037418692
  0.7489403522380167  0.3083456584901449  0.8184457919019542
  0.0044679553873251  0.7053503850719440  0.8153807690890332
  0.2446208904161780  0.3292549065845278  0.0667551703955062
 -0.0070374950806591  0.6684523310707082  0.0646623997413533
  0.5003445075272264  0.3335356334291427  0.3194666614308694
  0.2415778713250815  0.7274435500530461  0.3093499413143813
  0.7439397653623216  0.3558731756717015  0.0681445823663590
  0.4957326132418874  0.6548972998376862  0.0663139687961689
 -0.0032769459078285  0.3507890980347801  0.3172123741970376
  0.7411076691087881  0.6397923964802524  0.3157472545212885
  0.2489231835211669  0.3348858988955685  0.5676986331517130
 -0.0040305026240041  0.6953923597323652  0.5638007849335636
  0.5001774583389230  0.3608848482590539  0.8185156928369759
  0.2447091910765672  0.6428781743401421  0.8115498895847673
  0.7494997337035711  0.3529281350755946  0.5690296301726807
  0.4988162877181003  0.6470125224897290  0.5671139221773435
 -0.0035324322914883  0.3192743025874850  0.8176728875026834
  0.7457934094814109  0.6732363074356889  0.8132867149575065
  0.5112265943945086  0.0830895821123833  0.0457750261574712
  0.2564792461364145  0.9040137123048264  0.0331970554874669
  0.2565396289953737  0.0917812002228380  0.3152879748447047
 -0.0552786569319718  0.9016970437443352  0.3104015880071440
  0.9557297203797175  0.0928894853651098  0.0590836380332667
  0.7268973290637223  0.9103301904853858  0.0889217679247006
  0.7624395995140196  0.0925710485631771  0.3242541764354015
  0.5092823841754505  0.9111903222152226  0.3257817385286193
  0.5200940646463014  0.0882937195340513  0.5819848425366875
  0.2643133595526187  0.9115379383878659  0.5801335402687445
  0.2847355755876660  0.0856906149989396  0.8197347926793239
  0.0306740981181909  0.9188205751314027  0.8105119460508641
  0.9852024903985586  0.0865355659899967  0.5532297838447695
  0.7332074916525689  0.9132730863893362  0.5521860783431902
  0.7392696693475816  0.0883953388156577  0.8197842971347905
  0.5157596758651458  0.9149806998800679  0.8056296961335306
 
  0.00000000E+00  0.00000000E+00  0.00000000E+00
  0.00000000E+00  0.00000000E+00  0.00000000E+00
  0.00000000E+00  0.00000000E+00  0.00000000E+00
  0.00000000E+00  0.00000000E+00  0.00000000E+00
  0.00000000E+00  0.00000000E+00  0.00000000E+00
  0.00000000E+00  0.00000000E+00  0.00000000E+00
  0.00000000E+00  0.00000000E+00  0.00000000E+00
  0.00000000E+00  0.00000000E+00  0.00000000E+00
  0.00000000E+00  0.00000000E+00  0.00000000E+00
  0.00000000E+00  0.00000000E+00  0.00000000E+00
  0.00000000E+00  0.00000000E+00  0.00000000E+00
  0.00000000E+00  0.00000000E+00  0.00000000E+00
  0.00000000E+00  0.00000000E+00  0.00000000E+00
  0.00000000E+00  0.00000000E+00  0.00000000E+00
  0.00000000E+00  0.00000000E+00  0.00000000E+00
  0.00000000E+00  0.00000000E+00  0.00000000E+00
  0.00000000E+00  0.00000000E+00  0.00000000E+00
  0.00000000E+00  0.00000000E+00  0.00000000E+00
  0.00000000E+00  0.00000000E+00  0.00000000E+00
  0.00000000E+00  0.00000000E+00  0.00000000E+00
  0.00000000E+00  0.00000000E+00  0.00000000E+00
  0.00000000E+00  0.00000000E+00  0.00000000E+00
  0.00000000E+00  0.00000000E+00  0.00000000E+00
  0.00000000E+00  0.00000000E+00  0.00000000E+00
  0.00000000E+00  0.00000000E+00  0.00000000E+00
  0.00000000E+00  0.00000000E+00  0.00000000E+00
  0.00000000E+00  0.00000000E+00  0.00000000E+00
  0.00000000E+00  0.00000000E+00  0.00000000E+00
  0.00000000E+00  0.00000000E+00  0.00000000E+00
  0.00000000E+00  0.00000000E+00  0.00000000E+00
  0.00000000E+00  0.00000000E+00  0.00000000E+00
  0.00000000E+00  0.00000000E+00  0.00000000E+00
  0.00000000E+00  0.00000000E+00  0.00000000E+00
  0.00000000E+00  0.00000000E+00  0.00000000E+00
  0.00000000E+00  0.00000000E+00  0.00000000E+00
  0.00000000E+00  0.00000000E+00  0.00000000E+00
  0.00000000E+00  0.00000000E+00  0.00000000E+00
  0.00000000E+00  0.00000000E+00  0.00000000E+00
  0.00000000E+00  0.00000000E+00  0.00000000E+00
  0.00000000E+00  0.00000000E+00  0.00000000E+00
  0.00000000E+00  0.00000000E+00  0.00000000E+00
  0.00000000E+00  0.00000000E+00  0.00000000E+00
  0.00000000E+00  0.00000000E+00  0.00000000E+00
  0.00000000E+00  0.00000000E+00  0.00000000E+00
  0.00000000E+00  0.00000000E+00  0.00000000E+00
  0.00000000E+00  0.00000000E+00  0.00000000E+00
  0.00000000E+00  0.00000000E+00  0.00000000E+00
  0.00000000E+00  0.00000000E+00  0.00000000E+00
  0.00000000E+00  0.00000000E+00  0.00000000E+00
  0.00000000E+00  0.00000000E+00  0.00000000E+00
  0.00000000E+00  0.00000000E+00  0.00000000E+00
  0.00000000E+00  0.00000000E+00  0.00000000E+00
  0.00000000E+00  0.00000000E+00  0.00000000E+00
  0.00000000E+00  0.00000000E+00  0.00000000E+00
  0.00000000E+00  0.00000000E+00  0.00000000E+00
  0.00000000E+00  0.00000000E+00  0.00000000E+00
  0.00000000E+00  0.00000000E+00  0.00000000E+00
  0.00000000E+00  0.00000000E+00  0.00000000E+00
  0.00000000E+00  0.00000000E+00  0.00000000E+00
  0.00000000E+00  0.00000000E+00  0.00000000E+00
  0.00000000E+00  0.00000000E+00  0.00000000E+00
