Li Mg Bi  S  O 
 1.0000000000000000
    11.1784999999999997    0.0000000000000000    0.0000000000000000
     0.0000000000000000    9.5746000000000002    0.0000000000000000
     0.0000000000000000    0.0000000000000000   11.1823999999999995
 Li  Mg  Bi  S   O  
  12   2  16  16  16
Direct
  0.1270757685874715  0.9967329621378043  0.2013532444573282
  0.3690502249033015  0.0100920958602398  0.1642020808421380
  0.6313310248373077  1.0005076156323112  0.4375382079060599
  0.8925880790756259  0.0009425496992804  0.4371254959946724
  0.6218227484235510  1.0027306948438988  0.1980031128666417
  0.8759220446658718  0.0029863113149528  0.1839664913909650
  0.1357106265508422  1.0009946035106978  0.9369180867299148
  0.1281629807136174  1.0058016720167953  0.6697949938531911
  0.3688040419430493 -0.0076832024546178  0.7108836232704716
  0.8822330828198780  0.0016223813646706  0.9372497986249223
  0.6236670463754137  0.9975660793610648  0.6780888401835509
  0.8771895101309223 -0.0019591701796386  0.6905163387948500
  0.3723039512941867  0.0003735471064694  0.4373788588182038
  0.6179067541829890  1.0007620606695056  0.9377526096588286
 -0.0011723617358396  0.2984799851138435  0.0625744801174283
  0.2461584638298502  0.7084384900315489  0.0637032079160126
  0.2511626633613733  0.3028911843552845  0.3107413549521020
  0.5008573234965327  0.6954584897035665  0.3142997607350937
  0.4998148225895906  0.3029865670605476  0.0624238297694538
  0.7497725902614701  0.6985908653626016  0.0611369143056073
  0.7500542303829556  0.2968240786671778  0.3124219170836998
  0.9978746485320357  0.7085190404735917  0.3108969490638152
 -0.0030963675083460  0.2938094146503967  0.5631952248925598
  0.2514354957133050  0.6995416119760171  0.5637202955852119
  0.2445387310169578  0.2946789429116417  0.8115126585551993
  0.5010991938951833  0.6972769024882735  0.8116224214087521
  0.4990720358826573  0.3047509184968413  0.5605178904951625
  0.7517152802234655  0.7048855523989379  0.5622105475895719
  0.7489114304820812  0.3038057701629463  0.8123207632404136
  1.0004955382198490  0.7039622762765707  0.8126018812215597
  0.2521157755290711  0.3364192377095636  0.0631178778493054
 -0.0005650008277931  0.6540908634395490  0.0629485092567302
  0.5003263189745591  0.3519000265131452  0.3128883584343294
  0.2512673473484549  0.6616160433845030  0.3152423962465459
  0.7487895258211211  0.3508687609846496  0.0607016553276116
  0.4998719546005563  0.6665073826533743  0.0621819874894718
  0.9999553714092159  0.3341973251338261  0.3120017251240849
  0.7492721109848707  0.6583261602379340  0.3125018440355923
  0.2516993149543514  0.3388410448218458  0.5606974053765867
 -0.0003935374548078  0.6650108308233897  0.5637428542534925
  0.5001596127493532  0.3335435171052178  0.8126863460494200
  0.2516965245578764  0.6653832686936153  0.8121576238353861
  0.7487476098515643  0.3434376696374503  0.5628956097281558
  0.4998235493019858  0.6503581839866730  0.5620019914530338
  0.9987904652375210  0.3486686408511689  0.8139913968432587
  0.7486461217460252  0.6506456401552716  0.8131333690528573
  0.5187379016792069  0.0844810875196986  0.0713804176007219
  0.2339260442988071  0.9214357030479946  0.0761803839247131
  0.2745188664925328  0.0861512435980811  0.3055243529349156
 -0.0126481465263060  0.9219404903626957  0.2988459987713891
  0.9934430259583791  0.0819479614606046  0.0595486395322174
  0.7426068146656182  0.9201607531714168  0.0532652365124430
  0.7468631512088076  0.0792570011277932  0.3102461541605370
  0.4994588659866201  0.9168911231408344  0.3243998707211991
  0.4994069710095353  0.0836871469006185  0.5499179237672702
  0.2734528107590263  0.9163201581835627  0.5696860122330935
  0.2333637540225197  0.0814973418598287  0.7979603561550788
 -0.0062377678986265  0.9204148675298117  0.8153929953506962
  0.9872819876530949  0.0803539017347004  0.5755286619790153
  0.7480066979119675  0.9226287954282247  0.5641147310107327
  0.7426561689013372  0.0821623937739612  0.8219051667331341
  0.5199294602810125  0.9155551024744796  0.8039199409446206
