Li6 Mg5 Bi16 S16 O16                    
   1.00000000000000     
    11.2598308500479369    0.1671297391812804    0.0263715982981852
     0.1420698693852154    9.6380642248851398   -0.0144229190729605
     0.0257155085627821   -0.0153998628671797   11.2016212248810696
   Li   Mg   Bi   S    O 
     6     5    16    16    16
Direct
  0.2260702296243364 -0.0279356794904876  0.4120898681258684
  0.6246804883533363  0.0036292694742685  0.3868815061791374
  0.8752552844964006 -0.0031931153127083  0.4473695502781163
  0.0983124354393011  0.9804678061761265  0.6767699656486273
  0.8774973862559238 -0.0078238456824112  0.9401963463880085
  0.8726001248103474 -0.0027515060038331  0.6857398495722781
  0.3964459864716752  0.0043934210496023  0.1889833996752523
  0.8686486594255967 -0.0045733498401185  0.1945859162323100
  0.3928705475970208  0.0081623118797655  0.9269171940556419
  0.3718686165795883  0.0085055750774519  0.6661383933287023
  0.6303246333682669 -0.0006172226239258  0.6960665424210787
 -0.0016119362532349  0.2913387507208845  0.0662350273089635
  0.2585933712950433  0.7048418635069664  0.0645823691555182
  0.2559998524684889  0.3064671019714175  0.3088699717402321
  0.5044164714745979  0.6947531577702645  0.3097883864684332
  0.5027990444337124  0.3177760260031077  0.0653991553291759
  0.7585798466484889  0.6941309148797774  0.0665014490228730
  0.7565393721367469  0.3077180323937327  0.3139300627233290
 -0.0026388599289396  0.6864401035021199  0.3124015084014109
 -0.0025399693024176  0.2896087302766402  0.5658063405651427
  0.2494255666428862  0.6925443537828782  0.5668052421837753
  0.2544736872064032  0.3186503784510423  0.8147334450913846
  0.5025798906373031  0.6855291874600038  0.8108132230517743
  0.5027541890849747  0.3156918031150184  0.5668467142071758
  0.7560286964389327  0.6916141448565799  0.5663051007189904
  0.7562635360915410  0.3039034937983141  0.8135567621295913
 -0.0018910367332371  0.6968938417809690  0.8148970701064927
  0.2602666733612753  0.3659132934623092  0.0684226947733027
 -0.0013678500596627  0.6421852248505946  0.0674146099381953
  0.5074056105250698  0.3374726471395152  0.3170914381267795
  0.2465751813406268  0.7159986413861638  0.3206112678738826
  0.7580673862955292  0.3494554834629634  0.0675795327385397
  0.4967594554298663  0.6431868120731463  0.0673586798169194
  0.0072870627640188  0.3329616922292483  0.3161669752405928
  0.7463532169526572  0.6434393171551528  0.3175831381803112
  0.2585886921894530  0.3369628603057443  0.5682452048998833
  0.0011837450451496  0.6453932173095432  0.5685230139683162
  0.5060895417670046  0.3659572186181020  0.8147463488221922
  0.2508759595760805  0.6595271962888066  0.8173447787449089
  0.7554405403944913  0.3551024824506616  0.5677422436350839
  0.4980368612752605  0.6579357233384232  0.5684780721239453
  0.0059047587703271  0.3342202112487018  0.8143140541442840
  0.7466301736803275  0.6538301017213785  0.8139960673367308
  0.4743213676310446  0.1061036534159571  0.0559189691742390
  0.3104458653612426  0.9088067569714433  0.0552656611543619
  0.2800888646089176  0.0960580609391895  0.2997353118152328
 -0.0414199097741604  0.8944591120884962  0.3195615638866993
  0.9627989844209957  0.0865306244874907  0.0697378626629724
  0.7824493856016316  0.9016344392839727  0.0663863042529898
  0.7665224121584302  0.0904328052933811  0.3233446306040641
  0.5098327424624830  0.9075152183160328  0.2984899057218519
  0.5110318421291553  0.0970399810538090  0.5904781348131017
  0.2448343987049788  0.9131203751164583  0.5800281665562300
  0.2926482523113422  0.1033992788337119  0.8042819485005005
 -0.0165540738384829  0.9075238671444109  0.7971863033698152
  0.9822048486911223  0.0780615087049577  0.5728094129394007
  0.7448654853147326  0.9106216163836590  0.5760752263101461
  0.7526555931232409  0.0896381106423035  0.7929125486134080
  0.4894408170227633  0.9142269193108005  0.7886895691518617
 
  0.00000000E+00  0.00000000E+00  0.00000000E+00
  0.00000000E+00  0.00000000E+00  0.00000000E+00
  0.00000000E+00  0.00000000E+00  0.00000000E+00
  0.00000000E+00  0.00000000E+00  0.00000000E+00
  0.00000000E+00  0.00000000E+00  0.00000000E+00
  0.00000000E+00  0.00000000E+00  0.00000000E+00
  0.00000000E+00  0.00000000E+00  0.00000000E+00
  0.00000000E+00  0.00000000E+00  0.00000000E+00
  0.00000000E+00  0.00000000E+00  0.00000000E+00
  0.00000000E+00  0.00000000E+00  0.00000000E+00
  0.00000000E+00  0.00000000E+00  0.00000000E+00
  0.00000000E+00  0.00000000E+00  0.00000000E+00
  0.00000000E+00  0.00000000E+00  0.00000000E+00
  0.00000000E+00  0.00000000E+00  0.00000000E+00
  0.00000000E+00  0.00000000E+00  0.00000000E+00
  0.00000000E+00  0.00000000E+00  0.00000000E+00
  0.00000000E+00  0.00000000E+00  0.00000000E+00
  0.00000000E+00  0.00000000E+00  0.00000000E+00
  0.00000000E+00  0.00000000E+00  0.00000000E+00
  0.00000000E+00  0.00000000E+00  0.00000000E+00
  0.00000000E+00  0.00000000E+00  0.00000000E+00
  0.00000000E+00  0.00000000E+00  0.00000000E+00
  0.00000000E+00  0.00000000E+00  0.00000000E+00
  0.00000000E+00  0.00000000E+00  0.00000000E+00
  0.00000000E+00  0.00000000E+00  0.00000000E+00
  0.00000000E+00  0.00000000E+00  0.00000000E+00
  0.00000000E+00  0.00000000E+00  0.00000000E+00
  0.00000000E+00  0.00000000E+00  0.00000000E+00
  0.00000000E+00  0.00000000E+00  0.00000000E+00
  0.00000000E+00  0.00000000E+00  0.00000000E+00
  0.00000000E+00  0.00000000E+00  0.00000000E+00
  0.00000000E+00  0.00000000E+00  0.00000000E+00
  0.00000000E+00  0.00000000E+00  0.00000000E+00
  0.00000000E+00  0.00000000E+00  0.00000000E+00
  0.00000000E+00  0.00000000E+00  0.00000000E+00
  0.00000000E+00  0.00000000E+00  0.00000000E+00
  0.00000000E+00  0.00000000E+00  0.00000000E+00
  0.00000000E+00  0.00000000E+00  0.00000000E+00
  0.00000000E+00  0.00000000E+00  0.00000000E+00
  0.00000000E+00  0.00000000E+00  0.00000000E+00
  0.00000000E+00  0.00000000E+00  0.00000000E+00
  0.00000000E+00  0.00000000E+00  0.00000000E+00
  0.00000000E+00  0.00000000E+00  0.00000000E+00
  0.00000000E+00  0.00000000E+00  0.00000000E+00
  0.00000000E+00  0.00000000E+00  0.00000000E+00
  0.00000000E+00  0.00000000E+00  0.00000000E+00
  0.00000000E+00  0.00000000E+00  0.00000000E+00
  0.00000000E+00  0.00000000E+00  0.00000000E+00
  0.00000000E+00  0.00000000E+00  0.00000000E+00
  0.00000000E+00  0.00000000E+00  0.00000000E+00
  0.00000000E+00  0.00000000E+00  0.00000000E+00
  0.00000000E+00  0.00000000E+00  0.00000000E+00
  0.00000000E+00  0.00000000E+00  0.00000000E+00
  0.00000000E+00  0.00000000E+00  0.00000000E+00
  0.00000000E+00  0.00000000E+00  0.00000000E+00
  0.00000000E+00  0.00000000E+00  0.00000000E+00
  0.00000000E+00  0.00000000E+00  0.00000000E+00
  0.00000000E+00  0.00000000E+00  0.00000000E+00
  0.00000000E+00  0.00000000E+00  0.00000000E+00
