Li8 Mg4 Bi16 S16 O16                    
   1.00000000000000     
    11.2493385490992193   -0.0625239918000449   -0.0192003939179320
    -0.0537039169154125    9.5940432139622800    0.0320687306758112
    -0.0197132199479331    0.0368491198226292   11.2308587778959712
   Li   Mg   Bi   S    O 
     8     4    16    16    16
Direct
  0.3573153952228100 -0.0037435312272878  0.4434175280186746
  0.6103892772836244 -0.0033654864043766  0.4249979846481920
 -0.0034262267135320  0.0392533490071047  0.4073377703601466
  0.8076150982393512 -0.0338220596530601  0.2166482532220354
  0.1343835402033434  0.0140633746935147  0.0619112410585670
  0.5123203233284291 -0.0301032103202833  0.9597809438190320
  0.1168292071756999  0.0113550512368168  0.6941888428164674
  0.6185948808974200  0.9931582429200128  0.6865274097288787
  0.3791831202996083 -0.0029379439545911  0.2000485792305992
  0.3719638133507272 -0.0004410501027304  0.6948715781032373
  0.8728027404427797  0.0018946669137881  0.9285466266284889
  0.8650039308841666  0.0028804943713132  0.6655069479302833
 -0.0053978162347561  0.3119446620247354  0.0578261454666758
  0.2510340606709173  0.6908058152273764  0.0687083650121117
  0.2506755326331434  0.3074863222357198  0.3119503702655991
  0.4927396137902075  0.6919425513124775  0.3136193361154662
  0.4944564059002995  0.3033691349729095  0.0673347641557564
  0.7521038435614852  0.6895475190486682  0.0572005593402972
  0.7432179248063515  0.2909704023409486  0.3105380981878028
 -0.0097778024798726  0.7090899528906379  0.3024342413209199
 -0.0028418039968159  0.3169277978168334  0.5592815575500536
  0.2476113772932937  0.6950284610789093  0.5626441292892205
  0.2475484515989292  0.3071430399359307  0.8084887687554875
  0.4942800195965673  0.6889845082850320  0.8078541947282575
  0.4951785851647472  0.3042850024940705  0.5634035766325987
  0.7450796449723354  0.6929962594928734  0.5584324380299516
  0.7503921319686347  0.3114455351744886  0.8084903879544225
 -0.0063977199005785  0.6926366312794221  0.8046099677697199
  0.2465909242522304  0.3338361452893847  0.0609802085604613
  0.0045798035820387  0.6559039902310712  0.0550061306992701
  0.4995093267849409  0.3598438989941390  0.3079766530212726
  0.2514905227919110  0.6451360610654679  0.3096475885901219
  0.7472509837409902  0.3280832630111887  0.0562774365562268
  0.5046879412542247  0.7056789882858457  0.0548172690668599
 -0.0011442920892887  0.2888301500122291  0.3119460445883352
  0.7500341477402112  0.6593718226710016  0.3049639877893296
  0.2494211113274138  0.3557156413959041  0.5612157138607664
 -0.0010245875190427  0.6681070225324449  0.5572310129415146
  0.4968364315988282  0.3388636342800678  0.8079630208060833
  0.2535890237391412  0.6636533637021425  0.8078342937372304
  0.7488886997666412  0.3454033563527465  0.5599701996369468
  0.5006408147790201  0.6419704449763334  0.5584854773228373
  0.9965273129484271  0.3649103305313355  0.8069567786251358
  0.7525329355727429  0.6426621117683797  0.8052473003237554
  0.4800353685812912  0.0921247507848035  0.0801726797723972
  0.2598115295968576  0.9022025692873573  0.0954118965989751
  0.2837418690099987  0.0983777143592422  0.3171560492673653
 -0.0363782495442772  0.9149558295416763  0.2907782635675112
 -0.0047170985298713  0.1021357628009009  0.0201156195218576
  0.7776523143117928  0.9019122352646901  0.0495757822964951
  0.7225506498386999  0.0827228015636541  0.3222685199481279
  0.4735818472591622  0.9066540739654084  0.3329433640303738
  0.4887860168418798  0.0843060403906524  0.5746831328486655
  0.2642022330982191  0.9100223957882213  0.5772255826399245
  0.2461659407721943  0.0959570703338326  0.7808702424727960
 -0.0327233015603225  0.9120242833291050  0.7920457510665504
  0.9935058857489077  0.0968378181641301  0.5755860975360043
  0.7329897152098855  0.9089797915297922  0.5793674754718918
  0.7705482434876753  0.0912583683456715  0.7966260129538547
  0.4969583856481562  0.9094827763598977  0.7946538077421454
 
  0.00000000E+00  0.00000000E+00  0.00000000E+00
  0.00000000E+00  0.00000000E+00  0.00000000E+00
  0.00000000E+00  0.00000000E+00  0.00000000E+00
  0.00000000E+00  0.00000000E+00  0.00000000E+00
  0.00000000E+00  0.00000000E+00  0.00000000E+00
  0.00000000E+00  0.00000000E+00  0.00000000E+00
  0.00000000E+00  0.00000000E+00  0.00000000E+00
  0.00000000E+00  0.00000000E+00  0.00000000E+00
  0.00000000E+00  0.00000000E+00  0.00000000E+00
  0.00000000E+00  0.00000000E+00  0.00000000E+00
  0.00000000E+00  0.00000000E+00  0.00000000E+00
  0.00000000E+00  0.00000000E+00  0.00000000E+00
  0.00000000E+00  0.00000000E+00  0.00000000E+00
  0.00000000E+00  0.00000000E+00  0.00000000E+00
  0.00000000E+00  0.00000000E+00  0.00000000E+00
  0.00000000E+00  0.00000000E+00  0.00000000E+00
  0.00000000E+00  0.00000000E+00  0.00000000E+00
  0.00000000E+00  0.00000000E+00  0.00000000E+00
  0.00000000E+00  0.00000000E+00  0.00000000E+00
  0.00000000E+00  0.00000000E+00  0.00000000E+00
  0.00000000E+00  0.00000000E+00  0.00000000E+00
  0.00000000E+00  0.00000000E+00  0.00000000E+00
  0.00000000E+00  0.00000000E+00  0.00000000E+00
  0.00000000E+00  0.00000000E+00  0.00000000E+00
  0.00000000E+00  0.00000000E+00  0.00000000E+00
  0.00000000E+00  0.00000000E+00  0.00000000E+00
  0.00000000E+00  0.00000000E+00  0.00000000E+00
  0.00000000E+00  0.00000000E+00  0.00000000E+00
  0.00000000E+00  0.00000000E+00  0.00000000E+00
  0.00000000E+00  0.00000000E+00  0.00000000E+00
  0.00000000E+00  0.00000000E+00  0.00000000E+00
  0.00000000E+00  0.00000000E+00  0.00000000E+00
  0.00000000E+00  0.00000000E+00  0.00000000E+00
  0.00000000E+00  0.00000000E+00  0.00000000E+00
  0.00000000E+00  0.00000000E+00  0.00000000E+00
  0.00000000E+00  0.00000000E+00  0.00000000E+00
  0.00000000E+00  0.00000000E+00  0.00000000E+00
  0.00000000E+00  0.00000000E+00  0.00000000E+00
  0.00000000E+00  0.00000000E+00  0.00000000E+00
  0.00000000E+00  0.00000000E+00  0.00000000E+00
  0.00000000E+00  0.00000000E+00  0.00000000E+00
  0.00000000E+00  0.00000000E+00  0.00000000E+00
  0.00000000E+00  0.00000000E+00  0.00000000E+00
  0.00000000E+00  0.00000000E+00  0.00000000E+00
  0.00000000E+00  0.00000000E+00  0.00000000E+00
  0.00000000E+00  0.00000000E+00  0.00000000E+00
  0.00000000E+00  0.00000000E+00  0.00000000E+00
  0.00000000E+00  0.00000000E+00  0.00000000E+00
  0.00000000E+00  0.00000000E+00  0.00000000E+00
  0.00000000E+00  0.00000000E+00  0.00000000E+00
  0.00000000E+00  0.00000000E+00  0.00000000E+00
  0.00000000E+00  0.00000000E+00  0.00000000E+00
  0.00000000E+00  0.00000000E+00  0.00000000E+00
  0.00000000E+00  0.00000000E+00  0.00000000E+00
  0.00000000E+00  0.00000000E+00  0.00000000E+00
  0.00000000E+00  0.00000000E+00  0.00000000E+00
  0.00000000E+00  0.00000000E+00  0.00000000E+00
  0.00000000E+00  0.00000000E+00  0.00000000E+00
  0.00000000E+00  0.00000000E+00  0.00000000E+00
  0.00000000E+00  0.00000000E+00  0.00000000E+00
