Li6 Mg5 Bi16 S16 O16                    
   1.00000000000000     
    11.2522690341630476   -0.0225908589663354   -0.0247716341968885
    -0.0203615858144388    9.6051041379338145    0.0982327967728513
    -0.0250779205278621    0.1162057750205033   11.2441411422203288
   Li   Mg   Bi   S    O 
     6     5    16    16    16
Direct
  0.3942508933758965  0.0096905846801268  0.2083764732190047
  0.5939372081290974  0.9673706447517838  0.5254217161908904
  0.1656710515083493  0.9846255152197809  0.9153722859983712
  0.1044541988723627 -0.0079276179157415  0.6642785008545474
  0.5740450147410487  0.0295059234782832  0.9066350364943926
  0.8517053133729082 -0.0261246645205103  0.8042268497784658
  0.1333756524782595 -0.0058816971373558  0.1968380467828756
  0.8839497701601780 -0.0061239520641519  0.4301279065709601
  0.6360446105441091 -0.0006920817940031  0.1963595479684888
  0.8831019072826718 -0.0010350538950844  0.1668919657873733
  0.3667883861338458  0.0031119535388206  0.6979306512641802
  0.0078994787267962  0.3164530868720572  0.0633339813333921
  0.2486927303740324  0.6932696118033305  0.0642174813643896
  0.2564994526986365  0.2988228432959765  0.3122196501953042
  0.5020180211704519  0.6937512130966896  0.3137208965632875
  0.5046477828236936  0.3089370982027237  0.0694041023014706
  0.7487968618512169  0.6835944616449826  0.0623652224636606
  0.7558825063226069  0.3149914499980455  0.3138873000468268
  0.0027215233599542  0.6794731391648664  0.3128062811322116
 -0.0014598453223119  0.2966503298543169  0.5638528488119988
  0.2515325231009937  0.7002667312036820  0.5687499959353389
  0.2475365850719622  0.3100864551046134  0.8105773019593929
  0.4984895368614098  0.7018654857486267  0.8162736527415889
  0.4965847831209652  0.3031266358684536  0.5716079884739513
  0.7533067855865145  0.6878773961573152  0.5606008955653565
  0.7458920096261402  0.2984994372065539  0.8172498677250707
  0.0054135030084210  0.6993117999855264  0.8121225904386656
  0.2492010376310458  0.3546799748771500  0.0694186168843769
  0.0002570267964401  0.6501440286170146  0.0633630384800991
  0.5016980428031034  0.3382082457082934  0.3181681613194565
  0.2485485094486636  0.6735774420320091  0.3104247041470490
  0.7499971462001339  0.3539681924941343  0.0678105628010727
  0.5035044955287874  0.6565804523237381  0.0645594358867110
  0.0003975774913187  0.3579194308990503  0.3177635517418260
  0.7507625033301979  0.6296522855050237  0.3120206946019154
  0.2510735673529543  0.3520564356721033  0.5677241899738856
  0.0010359531215508  0.6610490928993614  0.5598456241062172
  0.4996368280302270  0.3459959813378197  0.8197252148394373
  0.2520944348803827  0.6417886309956944  0.8141580864915708
  0.7509938618437195  0.3278577259954049  0.5640553662388174
  0.5039607982912392  0.6897696920344686  0.5626503175954839
 -0.0018973629405416  0.3316243382741939  0.8178482169716179
  0.7548241446047698  0.7194827448567503  0.8115340255699732
  0.5231350779549219  0.0932946887804754  0.0848900039026666
  0.2237102167712199  0.9065435789162064  0.0678111036788981
  0.2582333299849008  0.0903392076734768  0.2811065729883627
 -0.0119903168640301  0.9084209755046198  0.2933453441921287
  0.0149900711852128  0.0995421741554060  0.0955843252272776
  0.7513995268276594  0.8973807748931443  0.0995840722545243
  0.7780786367029449  0.0876158597033364  0.2909823889480720
  0.5184981211625920  0.9070997933891446  0.2973451556120086
  0.4844053885218221  0.0921288890122526  0.5883976259280255
  0.2456420842075412  0.9059767332784753  0.6034219161300878
  0.2439916468093783  0.0961024403196935  0.7951631986552878
  0.0193948246357561  0.9123204284053640  0.8102256848612424
 -0.0090717485926080  0.0843475877471767  0.5459492072835663
  0.7547795321952696  0.8976852632515203  0.5169027916419564
  0.7285877017707600  0.0916621894565879  0.8417041409100015
  0.4729590973324519  0.9115779914411803  0.8167976221749571
 
  0.00000000E+00  0.00000000E+00  0.00000000E+00
  0.00000000E+00  0.00000000E+00  0.00000000E+00
  0.00000000E+00  0.00000000E+00  0.00000000E+00
  0.00000000E+00  0.00000000E+00  0.00000000E+00
  0.00000000E+00  0.00000000E+00  0.00000000E+00
  0.00000000E+00  0.00000000E+00  0.00000000E+00
  0.00000000E+00  0.00000000E+00  0.00000000E+00
  0.00000000E+00  0.00000000E+00  0.00000000E+00
  0.00000000E+00  0.00000000E+00  0.00000000E+00
  0.00000000E+00  0.00000000E+00  0.00000000E+00
  0.00000000E+00  0.00000000E+00  0.00000000E+00
  0.00000000E+00  0.00000000E+00  0.00000000E+00
  0.00000000E+00  0.00000000E+00  0.00000000E+00
  0.00000000E+00  0.00000000E+00  0.00000000E+00
  0.00000000E+00  0.00000000E+00  0.00000000E+00
  0.00000000E+00  0.00000000E+00  0.00000000E+00
  0.00000000E+00  0.00000000E+00  0.00000000E+00
  0.00000000E+00  0.00000000E+00  0.00000000E+00
  0.00000000E+00  0.00000000E+00  0.00000000E+00
  0.00000000E+00  0.00000000E+00  0.00000000E+00
  0.00000000E+00  0.00000000E+00  0.00000000E+00
  0.00000000E+00  0.00000000E+00  0.00000000E+00
  0.00000000E+00  0.00000000E+00  0.00000000E+00
  0.00000000E+00  0.00000000E+00  0.00000000E+00
  0.00000000E+00  0.00000000E+00  0.00000000E+00
  0.00000000E+00  0.00000000E+00  0.00000000E+00
  0.00000000E+00  0.00000000E+00  0.00000000E+00
  0.00000000E+00  0.00000000E+00  0.00000000E+00
  0.00000000E+00  0.00000000E+00  0.00000000E+00
  0.00000000E+00  0.00000000E+00  0.00000000E+00
  0.00000000E+00  0.00000000E+00  0.00000000E+00
  0.00000000E+00  0.00000000E+00  0.00000000E+00
  0.00000000E+00  0.00000000E+00  0.00000000E+00
  0.00000000E+00  0.00000000E+00  0.00000000E+00
  0.00000000E+00  0.00000000E+00  0.00000000E+00
  0.00000000E+00  0.00000000E+00  0.00000000E+00
  0.00000000E+00  0.00000000E+00  0.00000000E+00
  0.00000000E+00  0.00000000E+00  0.00000000E+00
  0.00000000E+00  0.00000000E+00  0.00000000E+00
  0.00000000E+00  0.00000000E+00  0.00000000E+00
  0.00000000E+00  0.00000000E+00  0.00000000E+00
  0.00000000E+00  0.00000000E+00  0.00000000E+00
  0.00000000E+00  0.00000000E+00  0.00000000E+00
  0.00000000E+00  0.00000000E+00  0.00000000E+00
  0.00000000E+00  0.00000000E+00  0.00000000E+00
  0.00000000E+00  0.00000000E+00  0.00000000E+00
  0.00000000E+00  0.00000000E+00  0.00000000E+00
  0.00000000E+00  0.00000000E+00  0.00000000E+00
  0.00000000E+00  0.00000000E+00  0.00000000E+00
  0.00000000E+00  0.00000000E+00  0.00000000E+00
  0.00000000E+00  0.00000000E+00  0.00000000E+00
  0.00000000E+00  0.00000000E+00  0.00000000E+00
  0.00000000E+00  0.00000000E+00  0.00000000E+00
  0.00000000E+00  0.00000000E+00  0.00000000E+00
  0.00000000E+00  0.00000000E+00  0.00000000E+00
  0.00000000E+00  0.00000000E+00  0.00000000E+00
  0.00000000E+00  0.00000000E+00  0.00000000E+00
  0.00000000E+00  0.00000000E+00  0.00000000E+00
  0.00000000E+00  0.00000000E+00  0.00000000E+00
