Li Mg Bi  S  O 
 1.0000000000000000
    11.1784999999999997    0.0000000000000000    0.0000000000000000
     0.0000000000000000    9.5746000000000002    0.0000000000000000
     0.0000000000000000    0.0000000000000000   11.1823999999999995
 Li  Mg  Bi  S   O  
  10   3  16  16  16
Direct
  0.3604914043788567 -0.0049049968667784  0.4347666733766445
  0.1261223179889089  1.0021358266547242  0.2017292676691009
  0.3950885974979065  0.0078684419837578  0.1906392550678919
  0.6313582245427247  1.0018101065107226  0.4193479057115857
  0.8893730111062746  0.0039810009732106  0.4412504695269351
  0.0979516754602224  0.9898103105264994  0.9547171270105560
  0.3610026488785529  0.0043966685388196  0.9367791709576779
  0.3864197972468713  0.0000565239536526  0.6902169935738776
  0.6267055490339778  1.0036603901970647  0.6803176244749420
  0.8711262457477148  0.0006319294531704  0.6998990518555748
  0.8614786847505190  0.0022516295041389  0.1784649488184357
  0.1315249562382943  1.0018674037069908  0.6801430692418643
  0.6284541536318617  1.0004001330080772  0.9444631545258176
 -0.0010489042335195  0.3023668221530009  0.0649773281515595
  0.2463472652467522  0.7046296723018679  0.0631825334173464
  0.2534766886718670  0.2924327334686027  0.3069190878898860
  0.4965719501393046  0.7091557889181656  0.3168843250000558
  0.4975787711854605  0.3030019779019263  0.0591707600312189
  0.7463371488732676  0.6939471769119542  0.0647244638122725
  0.7526530528073264  0.3054567427582996  0.3154810930284639
  0.9957946936448847  0.6990453352698831  0.3105006448092169
  0.0002037274120177  0.3002025943188616  0.5637389247713206
  0.2517027231686708  0.6974779465107068  0.5631606095244280
  0.2495805634588101  0.3071894348810656  0.8102212776238786
  0.5003553438121346  0.6964242323441668  0.8137610892647937
  0.5004755132750653  0.2959684951445562  0.5614394114722886
  0.7492844685627534  0.7068359167044238  0.5629284744966527
  0.7461819058004371  0.3024382149562618  0.8096066291757704
  1.0030132215641314  0.6970081185420502  0.8109196873841277
  0.2505278539152073  0.3484440150810105  0.0615061950322807
 -0.0023048997730396  0.6544141029155016  0.0622873858757859
  0.5038773294720397  0.3358965081330267  0.3117305535210138
  0.2489236516402241  0.6655429498881373  0.3144226192993800
  0.7489891946918117  0.3227670551137426  0.0592907969514180
  0.4975628223930565  0.6614382202137141  0.0629965379086723
  0.9978272276292807  0.3507246197904146  0.3098373547591980
  0.7484641612015590  0.6553334216426429  0.3132642542572094
  0.2487776919118245  0.3363425377565026  0.5595003042389174
 -0.0008524939245459  0.6620047010082476  0.5644105294120649
  0.4983436887438537  0.3548365246443520  0.8135953474384126
  0.2472059876925853  0.6483092040715502  0.8113250878901338
  0.7517688044922586  0.3491603096376901  0.5634973274381437
  0.4987295947381123  0.6518677657917880  0.5654803708336442
  1.0027466686034252  0.3415901463364575  0.8120957465846002
  0.7475938705979104  0.6601270181144009  0.8155547436634146
  0.4906178837991861  0.0851408204621967  0.0404610342107154
  0.2402272709003708  0.9207468643733474  0.0534847709172132
  0.2644984351696782  0.0793681528671495  0.2963461623395873
 -0.0209730869296001  0.9144955484757950  0.2939790579331943
  1.0013320229000702  0.0849636310197610  0.0836267609666688
  0.7447887746014227  0.9130747823736292  0.0625739871892194
  0.7712520714488735  0.0880161943824530  0.3193138226125854
  0.4915748506042094  0.9224731258271657  0.3286784226936533
  0.5016066995429278  0.0797014886603104  0.5699295005662935
  0.2616148587809237  0.9144448221223729  0.5816562231458640
  0.2521564615957154  0.0869105763249501  0.7983459722245299
  0.0219987835564594  0.9138840839674325  0.8008374613390070
  0.9954207880664983  0.0828918669712094  0.5823241222282750
  0.7525536930050242  0.9238070627537114  0.5634246893968486
  0.7269632356256146  0.0852561175497548  0.8075493515623190
  0.5064427455860452  0.9178999785800279  0.8214655972941045
