Li Mg Bi  S  O 
 1.0000000000000000
    11.1784999999999997    0.0000000000000000    0.0000000000000000
     0.0000000000000000    9.5746000000000002    0.0000000000000000
     0.0000000000000000    0.0000000000000000   11.1823999999999995
 Li  Mg  Bi  S   O  
  10   3  16  16  16
Direct
  0.3614194677021140  0.0006768633250711  0.4355726803929206
  0.1244136413986358  1.0007994155685509  0.1894436863696598
  0.3761827412628025 -0.0007398777143178  0.1905254379158284
  0.6251341753484292  1.0002590567583776  0.4353940437702127
  0.8886445097867995 -0.0016157729504464  0.4354916836775935
  0.6245148808689588  1.0005011797523824  0.1724878056770552
  0.8728834713082415  0.0010526971965005  0.1889518944158652
  0.3831776135071497 -0.0007329270587376  0.6804517898457108
  0.6257970580685933  1.0001922353799864  0.7002613073150215
  0.8688124569178465  0.0014542250058372  0.6804976437410919
  0.3717372317336919  0.0028852896195964  0.9355602983993226
  0.1259132617768867  0.9994360006840867  0.6935763418240003
  0.8780374244291504 -0.0014135906944581  0.9355322172995334
 -0.0043184889416582  0.3038447815167351  0.0649467981774754
  0.2532835581101450  0.6985407375032762  0.0646506482574115
  0.2495282164059443  0.2913463283297222  0.3111728258002932
  0.5007569040614794  0.7059628974840587  0.3128905876090024
  0.4968377623181086  0.3020051194178933  0.0642936116645731
  0.7519467560490758  0.6980481306901712  0.0631981597057542
  0.7483752340401533  0.2944322614184125  0.3129575463666389
  0.9997309134647553  0.7094258336274375  0.3115614706328667
  0.0005402207310731  0.2971463578515947  0.5621362920339859
  0.2502612382742923  0.6990838675205895  0.5630204399398266
  0.2505036137449581  0.3089736806790364  0.8123420911043486
  0.4987756938152645  0.7003150637045045  0.8120979417936505
  0.5002892220267324  0.2952863599501316  0.5610639029303561
  0.7487838259389804  0.7050903071730035  0.5611536245449221
  0.7508977118835753  0.2999322509977378  0.8116421532462098
  0.9983557427285933  0.6922274379759636  0.8121735654942175
  0.2504441516217208  0.3421409615808439  0.0601558966275046
  0.0006314910524186  0.6581339872444171  0.0606763459518916
  0.5003522381540243  0.3452613522021870  0.3130754056138898
  0.2510451284918532  0.6654440972988128  0.3138710474923274
  0.7501440938891213  0.3404577749499772  0.0607919941172786
  0.4996289815972610  0.6586555601806623  0.0620508853236238
  0.9992251724429712  0.3359763698244844  0.3130306880700505
  0.7499460766747019  0.6557242801909047  0.3127908976448909
  0.2494199679966370  0.3372216145853551  0.5638784664356408
 -0.0000895189407159  0.6618605076969122  0.5644526773286057
  0.4999195652432823  0.3365214065299259  0.8133986734357928
  0.2484489888201093  0.6555076362336186  0.8133029413451660
  0.7512999873968016  0.3430959414211012  0.5634091352758124
  0.4996472562450970  0.6565758521744052  0.5642376924369636
  1.0014649717530442  0.3433819644017834  0.8127179998923791
  0.7498213503950940  0.6623540189955966  0.8141573248342648
  0.4810121862824280  0.0851506083990753  0.0652459153897120
  0.2692711086165037  0.9146922529919058  0.0640281010528002
  0.2612204560858976  0.0789641002540147  0.3005294710260276
 -0.0117129319968638  0.9221386462978777  0.2998225487700078
  0.9804873196746106  0.0876091146222380  0.0636488610762209
  0.7690328237113122  0.9147518278686981  0.0645935957816852
  0.7467512805529267  0.0777367296378036  0.3106788591508751
  0.5025716334472262  0.9226975059138385  0.3114375036637374
  0.5017987118119698  0.0779695461488034  0.5618107693230791
  0.2544825300392248  0.9159969948286644  0.5840330554772014
  0.2598258165762633  0.0852763895052272  0.8017963329514293
 -0.0096892036616400  0.9153925248532366  0.8024443880779389
  0.9975722123791123  0.0804634737711443  0.5825605243930866
  0.7494475213554849  0.9225170262768733  0.5618191667448690
  0.7691325988032938  0.0823309820134030  0.8076519403680783
  0.4807264881222013  0.9175966728073282  0.8085002120250915
