Li12 Mg2 Bi16 S16 O16                   
   1.00000000000000     
    11.1859691989878609   -0.0070027138744707   -0.0019807977056323
    -0.0063171644234640    9.4623063252711113   -0.0027602449720396
    -0.0018999080976606   -0.0034794855440463   11.1856509824943213
   Li   Mg   Bi   S    O 
    12     2    16    16    16
Direct
  0.3791250816583541  0.0008534557811296  0.4424748216446628
  0.1554893758545490  0.9711248197781815  0.2465247218499877
  0.3829062653035758  0.0033129442896653  0.1909302383735472
  0.6300290944086219 -0.0016633417345232  0.4426687400973218
  0.9049575801465342  0.0198272972775513  0.4139228996940703
  0.6278815426513624  0.0013477544227863  0.1999790135942895
  0.8786073236145548 -0.0026243382423657  0.1814355163847866
  0.1719117580320064  0.0324601959210383  0.9704878016860320
  0.1550087353420879  0.0344851825881880  0.6348803509115664
  0.3766167951363971 -0.0067063693176817  0.7042785094693609
  0.5614724225096810  0.9689322954496462  0.9621567392495093
  0.6204984700248327  0.9974410597857177  0.6865842217415101
  0.8637844160103536  0.0001121319564474  0.9345377660253547
  0.8740389466000802 -0.0009867827343726  0.6768545056931257
 -0.0043845122602794  0.3082013720745058  0.0589564297439913
  0.2480052914752764  0.7072813001898219  0.0669339503377337
  0.2538378534589353  0.2967994095985491  0.3119584850846766
  0.4993753892858321  0.6996064094797081  0.3128321961685320
  0.4968792159975732  0.2965029942713045  0.0657811595987492
  0.7484625412608993  0.6902190485890851  0.0619181328515665
  0.7490760517332911  0.2994497391267914  0.3096370515812898
 -0.0029951192835900  0.6979633181250748  0.3094346451819979
 -0.0020263402308138  0.3137508288853481  0.5590416318622601
  0.2528118368083138  0.7058056959577388  0.5637598951873608
  0.2475396757762397  0.3011299524703688  0.8085759529180173
  0.4956659459308158  0.6944084891972632  0.8084923641695066
  0.4993285693534398  0.2989510947969560  0.5614880004960684
  0.7468454351252978  0.6920826801765591  0.5621580862211584
  0.7466820093869434  0.3148250070613429  0.8087102381310481
 -0.0038510181545749  0.6851302416888579  0.8102302557833680
  0.2425678836338490  0.3111346274189355  0.0575483874801064
 -0.0032753241791041  0.6531373196339736  0.0588933582092330
  0.4975518538151836  0.3561550416094418  0.3093843921723898
  0.2455005032744049  0.6582257076988056  0.3105943005889355
  0.7438071956440078  0.3453072047375513  0.0582696575800460
  0.4987395628466960  0.6820437161523820  0.0586737671630263
  0.9952037158625404  0.3259399417269616  0.3097905554928975
  0.7469815234935432  0.6538261018305143  0.3093359118961967
  0.2441355016609536  0.3363728245563691  0.5589750321617720
 -0.0051748413923427  0.6705314980212433  0.5603150285033527
  0.4971101125881365  0.3258500635947092  0.8099647704915273
  0.2451633023026281  0.6733584707317872  0.8110424162167640
  0.7463223532781080  0.3493188558921139  0.5587276410343754
  0.4968982690604487  0.6446276949456231  0.5595884647181294
  0.9945377434051534  0.3531348063606277  0.8084280142298887
  0.7446893450794405  0.6425261485744380  0.8094680532431218
  0.5113143757216559  0.0826557336966168  0.0894986301709044
  0.2402842284611611  0.9204661984431673  0.0946094025906424
  0.2785389778223875  0.0833104951426992  0.3157221633429756
 -0.0061853884223980  0.9149252614474693  0.2959198581980271
  0.9800379259903923  0.0892274525726361  0.0437931902025126
  0.7542717988828497  0.9141539808474247  0.0572095597176778
  0.7545130191645116  0.0788753671901363  0.3128454666324666
  0.5094930994076198  0.9179284140717483  0.3211307761272817
  0.5105028580873748  0.0810124483476818  0.5603876784476131
  0.2775063099030947  0.9194901036242987  0.5700168664543614
  0.2323491446187531  0.0857624938880495  0.7965444531236807
 -0.0419448472349610  0.9022629433646814  0.8092343544080640
  0.9886421490898027  0.0912939615269082  0.5680864447134282
  0.7468800032199142  0.9153826035766309  0.5723654356530207
  0.7672642585829713  0.0903668928718949  0.8004242739218725
  0.5114127533746317  0.9114417389917688  0.8019273733812856
 
  0.00000000E+00  0.00000000E+00  0.00000000E+00
  0.00000000E+00  0.00000000E+00  0.00000000E+00
  0.00000000E+00  0.00000000E+00  0.00000000E+00
  0.00000000E+00  0.00000000E+00  0.00000000E+00
  0.00000000E+00  0.00000000E+00  0.00000000E+00
  0.00000000E+00  0.00000000E+00  0.00000000E+00
  0.00000000E+00  0.00000000E+00  0.00000000E+00
  0.00000000E+00  0.00000000E+00  0.00000000E+00
  0.00000000E+00  0.00000000E+00  0.00000000E+00
  0.00000000E+00  0.00000000E+00  0.00000000E+00
  0.00000000E+00  0.00000000E+00  0.00000000E+00
  0.00000000E+00  0.00000000E+00  0.00000000E+00
  0.00000000E+00  0.00000000E+00  0.00000000E+00
  0.00000000E+00  0.00000000E+00  0.00000000E+00
  0.00000000E+00  0.00000000E+00  0.00000000E+00
  0.00000000E+00  0.00000000E+00  0.00000000E+00
  0.00000000E+00  0.00000000E+00  0.00000000E+00
  0.00000000E+00  0.00000000E+00  0.00000000E+00
  0.00000000E+00  0.00000000E+00  0.00000000E+00
  0.00000000E+00  0.00000000E+00  0.00000000E+00
  0.00000000E+00  0.00000000E+00  0.00000000E+00
  0.00000000E+00  0.00000000E+00  0.00000000E+00
  0.00000000E+00  0.00000000E+00  0.00000000E+00
  0.00000000E+00  0.00000000E+00  0.00000000E+00
  0.00000000E+00  0.00000000E+00  0.00000000E+00
  0.00000000E+00  0.00000000E+00  0.00000000E+00
  0.00000000E+00  0.00000000E+00  0.00000000E+00
  0.00000000E+00  0.00000000E+00  0.00000000E+00
  0.00000000E+00  0.00000000E+00  0.00000000E+00
  0.00000000E+00  0.00000000E+00  0.00000000E+00
  0.00000000E+00  0.00000000E+00  0.00000000E+00
  0.00000000E+00  0.00000000E+00  0.00000000E+00
  0.00000000E+00  0.00000000E+00  0.00000000E+00
  0.00000000E+00  0.00000000E+00  0.00000000E+00
  0.00000000E+00  0.00000000E+00  0.00000000E+00
  0.00000000E+00  0.00000000E+00  0.00000000E+00
  0.00000000E+00  0.00000000E+00  0.00000000E+00
  0.00000000E+00  0.00000000E+00  0.00000000E+00
  0.00000000E+00  0.00000000E+00  0.00000000E+00
  0.00000000E+00  0.00000000E+00  0.00000000E+00
  0.00000000E+00  0.00000000E+00  0.00000000E+00
  0.00000000E+00  0.00000000E+00  0.00000000E+00
  0.00000000E+00  0.00000000E+00  0.00000000E+00
  0.00000000E+00  0.00000000E+00  0.00000000E+00
  0.00000000E+00  0.00000000E+00  0.00000000E+00
  0.00000000E+00  0.00000000E+00  0.00000000E+00
  0.00000000E+00  0.00000000E+00  0.00000000E+00
  0.00000000E+00  0.00000000E+00  0.00000000E+00
  0.00000000E+00  0.00000000E+00  0.00000000E+00
  0.00000000E+00  0.00000000E+00  0.00000000E+00
  0.00000000E+00  0.00000000E+00  0.00000000E+00
  0.00000000E+00  0.00000000E+00  0.00000000E+00
  0.00000000E+00  0.00000000E+00  0.00000000E+00
  0.00000000E+00  0.00000000E+00  0.00000000E+00
  0.00000000E+00  0.00000000E+00  0.00000000E+00
  0.00000000E+00  0.00000000E+00  0.00000000E+00
  0.00000000E+00  0.00000000E+00  0.00000000E+00
  0.00000000E+00  0.00000000E+00  0.00000000E+00
  0.00000000E+00  0.00000000E+00  0.00000000E+00
  0.00000000E+00  0.00000000E+00  0.00000000E+00
  0.00000000E+00  0.00000000E+00  0.00000000E+00
  0.00000000E+00  0.00000000E+00  0.00000000E+00
