Li Mg Bi  S  O 
 1.0000000000000000
    11.1784999999999997    0.0000000000000000    0.0000000000000000
     0.0000000000000000    9.5746000000000002    0.0000000000000000
     0.0000000000000000    0.0000000000000000   11.1823999999999995
 Li  Mg  Bi  S   O  
  14   1  16  16  16
Direct
  0.3622629255379337  0.0003788460561640  0.4370522036400207
  0.1283144683346502  0.9974712671020549  0.2033692515031101
  0.3768161978781189 -0.0003685862880146  0.1869617323449029
  0.6242221549468114  1.0001730894267131  0.4373749733878134
  0.8892566385394363  0.0000317660144595  0.4375032308289943
  0.6232071695528028  1.0016027432990389  0.1903178898415800
  0.8724418428064817  0.0014890651798104  0.1928445549792477
  0.1314759906763024  1.0000384561193731  0.9375016355404520
  0.3728271936165384  0.0003393411068925  0.9372335998805321
  0.1286374069015099  1.0031767195728372  0.6698845056511787
  0.3762554437753867  0.0010089110178001  0.6877513070711575
  0.6178822579697847  1.0001061641226552  0.9374024562462189
  0.6227702446664972  0.9990571411827848  0.6838194991726435
  0.8730060857264312 -0.0015795148085204  0.6821936299181549
  0.8747996158150892  0.0001401563874540  0.9370855190655398
  0.0001531449843537  0.3039204440328565  0.0628584231329774
  0.2512933855751363  0.7045630400581464  0.0628823728924838
  0.2504414319713568  0.2918064073578132  0.3118169874433194
  0.5006823009229582  0.7051588795238871  0.3126029084982071
  0.4981288550478679  0.2951330934144840  0.0629078539343396
  0.7497553183297619  0.6971347569968968  0.0623808766138477
  0.7489944042709931  0.2960776069254704  0.3133184966758045
  1.0002508519687030  0.7084383350848120  0.3129257086283142
 -0.0013292567293096  0.2926026656204979  0.5619977995192811
  0.2512888440638742  0.7087257702806807  0.5625094944154059
  0.2497215302946128  0.2956193944748233  0.8113375235898603
  0.4988779400386762  0.7060756714600344  0.8115956889559349
  0.4993686984217606  0.2955173354404922  0.5619898054769871
  0.7497810529140680  0.7044952988244548  0.5617623386259384
  0.7492183211912273  0.3032300663384621  0.8122635446363462
  1.0016193808517557  0.6957683031543899  0.8123213839225211
  0.2501518911262937  0.3421691869314457  0.0610783291089018
 -0.0011057235535135  0.6575816201314105  0.0612049129087058
  0.5016629430615147  0.3423617351199414  0.3116208097530814
  0.2506959599448376  0.6674661997958997  0.3119906155125786
  0.7525451669147289  0.3403023580884748  0.0618372140573333
  0.5010174801702183  0.6607343941146794  0.0620182658744577
  1.0002276679200561  0.3332706976989116  0.3116343798371610
  0.7502960337466307  0.6586879508010945  0.3118251533400411
  0.2518906246481522  0.3330037373751673  0.5626250966561502
 -0.0011441163671388  0.6659178210899291  0.5643717234574119
  0.5019474103417846  0.3388443844945204  0.8132396388793485
  0.2496534138802328  0.6585196630922266  0.8134422389111862
  0.7503572676191144  0.3414319392539928  0.5628931682470465
  0.5011033511820538  0.6580473704501564  0.5631777529945960
  0.9987872825100111  0.3440897377279988  0.8134271665554893
  0.7500695419403902  0.6584629643576082  0.8140709413886174
  0.5014181721743409  0.0765648267264156  0.0617350771973737
 -0.0120511488221070  0.9212241022008951  0.2985501633501555
  0.2498477774983607  0.9222420350459866  0.0600310348973226
  0.2638870337558637  0.0793243883892725  0.2990191681694932
  0.9928428187138630  0.0825646375921002  0.0529603292211099
  0.5028506787349563  0.9223893838872690  0.3114768531913444
  0.7552565237641121  0.9200702677795196  0.0549794517129862
  0.7473344456493590  0.0782552929301494  0.3102191761555449
  0.5025920059280710  0.0781452794409612  0.5628997919151705
 -0.0077799399309965  0.9171854394831841  0.8212655970109943
  0.2640885589775072  0.9212389387364445  0.5751949366372989
  0.2493738108219579  0.0779191895270810  0.8141714741315369
  0.9879648212151987  0.0794211841237100  0.5763606947844206
  0.5017107516949547  0.9244390681236295  0.8128480827070239
  0.7477870891721243  0.9222266355548731  0.5642613417599038
  0.7550508883899877  0.0802510983573618  0.8193089056170971
