Li Mg Bi  S  O 
 1.0000000000000000
    11.1784999999999997    0.0000000000000000    0.0000000000000000
     0.0000000000000000    9.5746000000000002    0.0000000000000000
     0.0000000000000000    0.0000000000000000   11.1823999999999995
 Li  Mg  Bi  S   O  
   2   7  16  16  16
Direct
  0.0651444333907087  1.0225597263246571  0.2136346771471914
  0.3764452059921112 -0.0030638810534661  0.6691128145787730
  0.3770504026666930 -0.0086908894161479  0.1844061261237124
  0.8634229028283527  0.0050306125120432  0.4494530259587271
  0.6496752267529298  1.0036479193011938  0.1810325569360597
  0.3906949022656275  0.0030998838662420  0.9209166054553726
  0.1055622752582351  1.0036566706000123  0.6968046159076300
  0.8741798518132712 -0.0035214553642256  0.9385847310952684
  0.6429275989405965  0.9927686696539010  0.6996241708752193
 -0.0003326200724652  0.3012110572336233  0.0620555917776189
  0.2572761776430906  0.6874687256904306  0.0639212305538978
  0.2511670053491261  0.2863472154622091  0.3083244118391207
  0.4978902425004925  0.6948835216571568  0.3158859215936201
  0.4985088544397731  0.3206109444365313  0.0653837444673589
  0.7530751679283996  0.6921186992024708  0.0678596874842727
  0.7499783535501363  0.3089217066638108  0.3151573904023453
  0.9984227906968293  0.7045197739522828  0.3197419194272053
  0.0028697516958257  0.3089653237886487  0.5609772253305502
  0.2446427936728042  0.6997924363619845  0.5699221283046663
  0.2532141103474753  0.3079111638928558  0.8093382582903101
  0.5004502929137919  0.6866851515285595  0.8118327480958946
  0.5028886969067585  0.2968520319459901  0.5684196527003491
  0.7482647996225573  0.6907771925905529  0.5640323458542997
  0.7518666364337927  0.3019377321453975  0.8146998018324724
  1.0010896829457627  0.6926358224517813  0.8196079817285563
  0.2494627093674289  0.3511254312594500  0.0603143873038543
 -0.0004670598146451  0.6637897892014700  0.0661681825279334
  0.4997919978537616  0.3365904003813711  0.3123269714756727
  0.2523452425208639  0.6839287997736896  0.3143803446272491
  0.7489538565575407  0.3400392459144607  0.0602670732813480
  0.4991812801638817  0.6304577697003128  0.0691966780718079
  1.0013961706898724  0.3315356468748318  0.3120515720444681
  0.7482682616809602  0.6494303594891526  0.3161924802184051
  0.2487353143085505  0.3347653754884324  0.5647453340135210
 -0.0032227341962372  0.6535020877921593  0.5628320148227097
  0.4998203264373104  0.3534135562990097  0.8152099581263663
  0.2488275431262648  0.6408907712803100  0.8105737714141711
  0.7521254857233697  0.3442759138155033  0.5615462804479985
  0.5007788747332914  0.6589428719090457  0.5673893656690771
  1.0001790591387338  0.3390744642627993  0.8107455708125352
  0.7488322834043813  0.6571132111856420  0.8182572905519614
  0.4934348230444918  0.0928217264251608  0.0714641155659982
  0.3039282500619751  0.8974168630935728  0.0448199017614656
  0.2414971561189703  0.0800965056503622  0.2646780675438730
 -0.0260202542178951  0.9154257287776503  0.3308516696154567
  0.9849351767105993  0.0882202920496478  0.0578248790415559
  0.7524816770273759  0.9111609943814710  0.0579198591441407
  0.7500249092374283  0.0901945592130777  0.3158092250249426
  0.5161446340266701  0.9010178859725113  0.2624923351887723
  0.5162130039596334  0.0899907270993859  0.6077654870960844
  0.2343308342710792  0.9076437479923766  0.6068927908280817
  0.2674577371527110  0.0865759575015300  0.8027091364384187
 -0.0040343090440592  0.9113675210776597  0.8183026645623374
  0.9910275739236760  0.0909653641861760  0.5698893630803474
  0.7507439720909694  0.9094940022499050  0.5686085548693385
  0.7548773380591766  0.0832431734438785  0.8187048318688763
  0.4999308593239170  0.9092309596325707  0.8040230750061484
