Li Mg Bi  S  O 
 1.0000000000000000
    11.1784999999999997    0.0000000000000000    0.0000000000000000
     0.0000000000000000    9.5746000000000002    0.0000000000000000
     0.0000000000000000    0.0000000000000000   11.1823999999999995
 Li  Mg  Bi  S   O  
   6   5  16  16  16
Direct
  0.3765864280159136 -0.0069158539588084  0.3558946011250526
  0.1234195716781674  0.9914103293988037  0.9351185997615241
  0.3682314080153538  0.0011241995823356  1.0249567157302844
  0.3807759525725811 -0.0087513750898562  0.6793775616236835
  0.6271388507672835  0.9989877452723233  0.9320712836031005
  0.8742671453769842 -0.0045940634539617  0.9381132333517109
  0.1099514235352832  0.9881347943845042  0.1963067450394961
  0.8753793396032823 -0.0061266541449640  0.4351109573676769
  0.6399390258228207  1.0012005379021316  0.1917015453008012
  0.1081073715294475  0.9931619947389339  0.6792386867179389
  0.6478366563475336  0.9968493267258819  0.6781536287802143
  0.0046841173045991  0.2939103336211608  0.0613277603355490
  0.2423901900388989  0.6851091716511105  0.0656696067485125
  0.2518453280999560  0.2958457571989365  0.3087957615170933
  0.5018755045245230  0.6944030211689526  0.3069018491729938
  0.5047911358914906  0.3059932828616640  0.0616990936345089
  0.7470225182705142  0.6954857141379744  0.0626823875087024
  0.7515349797689433  0.3021299568299007  0.3120484209712351
  0.9965212266263123  0.6840549402966094  0.3155441940212943
  0.0011792700120478  0.3006234097098390  0.5580928877165062
  0.2489682833849075  0.6883332160653430  0.5716831531803259
  0.2450572247523080  0.2977588280345680  0.8072272524315274
  0.5037806369234002  0.6941047553929796  0.8104664956317759
  0.5035072808044539  0.2965809437107210  0.5689672120179834
  0.7475482583539812  0.6874220701887823  0.5618564165354450
  0.7513235649944392  0.3026122662005136  0.8152132017127676
  0.9989092461084718  0.6903220417160846  0.8151140506200091
  0.2534870645071351  0.3408047684690215  0.0649905524214855
 -0.0076027652637139  0.6490467044214437  0.0695972424850369
  0.5051018238957173  0.3238633674714751  0.3119028085292358
  0.2487157186927785  0.6706591772361541  0.3137005408618137
  0.7569720873555231  0.3417511199154780  0.0637748270979139
  0.4966754802827240  0.6500656405754779  0.0638421007592782
  1.0037004036456547  0.3383148967133937  0.3149662165630312
  0.7411314532002701  0.6480983727935771  0.3163286611427881
  0.2531975554108212  0.3326571548923591  0.5631364200810403
 -0.0029769862224249  0.6523577360328405  0.5600570067021099
  0.5045935417621921  0.3482073253073725  0.8162227441735437
  0.2403209912047287  0.6398087575236608  0.8178350263475364
  0.7529480391912544  0.3368732261379236  0.5602655959017474
  0.4982687467863309  0.6524822837670520  0.5675979156165162
  1.0007484301992937  0.3419215061484455  0.8110456485213219
  0.7499538012770760  0.6483417632169067  0.8135532127706365
  0.5224285666149401  0.0881224159235401  0.0629004008818803
  0.2242202768674194  0.9030153549811689  0.0650923020479037
  0.2405209290587987  0.0831253897637908  0.2891857444301555
 -0.0091251273393726  0.9029140199863976  0.3144925727509332
  1.0163887454455494  0.0769873328711034  0.0577427016967168
  0.7350225945979975  0.9133246254739970  0.0547242050469432
  0.7590488736061278  0.0835279246751973  0.3126991905145889
  0.5127034425706903  0.9073583436536267  0.2875645040075720
  0.5110756114749962  0.0844782565724756  0.5923097731142192
  0.2461267770623643  0.9005395755350825  0.5967877195455189
  0.2252189558178199  0.0815134551299081  0.8017796707493208
  0.0119160315189830  0.9072762163978959  0.8168990300405333
  0.9951165840230921  0.0813499362383840  0.5570345881973993
  0.7590564297714794  0.9063162714890565  0.5576687232668626
  0.7392976271723146  0.0850947105369667  0.8168803378670806
  0.5283823491898570  0.9081767940033397  0.7964580300377764
