Li Mg Bi  S  O 
 1.0000000000000000
    11.1784999999999997    0.0000000000000000    0.0000000000000000
     0.0000000000000000    9.5746000000000002    0.0000000000000000
     0.0000000000000000    0.0000000000000000   11.1823999999999995
 Li  Mg  Bi  S   O  
  10   3  16  16  16
Direct
  0.3802594592917996  0.0001128641894767  0.4316300860112728
  0.1247395400580319  1.0001725504769061  0.2071882613118943
  0.3734992510055358 -0.0009969520591812  0.1844539052520799
  0.8734758300906659 -0.0008836104909006  0.4351620795786398
  0.8774430040191840  0.0012855078031724  0.1846724553201805
  0.1244052426943181  1.0006653329936028  0.9400848252618553
  0.4013480196421310 -0.0060986874504170  0.9422356572534684
  0.3754008296156517 -0.0014942725951467  0.6863686630917010
  0.8504177832045827  0.0071957250208651  0.9410731432179357
  0.8753959690768642  0.0016340144662947  0.6872951724703266
  0.6256021498165562  0.9997274704452890  0.1868842967509983
  0.1253954840538290  0.9998105225324289  0.6769175245985596
  0.6259351290093743  1.0002657929245600  0.6867167713979629
 -0.0018363901817849  0.2957057146202038  0.0616196049576182
  0.2506815604202040  0.7055301279171770  0.0610005886356291
  0.2507585929832957  0.2916422352925580  0.3093221405757820
  0.4996845680526070  0.6959413340821843  0.3090505386646116
  0.4990113078340133  0.3017792774201234  0.0627720657520844
  0.7528600970976804  0.6980435281716375  0.0622946789989414
  0.7495441402226943  0.3048162196690990  0.3094958073036460
  0.9987285965557839  0.7079464896945887  0.3100943018986000
 -0.0007773113210265  0.3019559001622549  0.5601639416005885
  0.2506606740823630  0.6961311810124554  0.5602678506372530
  0.2464479247349083  0.3045797642889107  0.8116517173995602
  0.4996538852428017  0.6974942249658527  0.8091166766301616
  0.4995967604886231  0.3006487709502662  0.5628090712912218
  0.7508379743084410  0.6976741554726029  0.5625335629016032
  0.7495081423066204  0.3051177649253906  0.8096253138301349
  1.0026019156729005  0.6962216318339544  0.8107530217660145
  0.2502693916546804  0.3443874808553300  0.0616307820861635
  0.0002640706577576  0.6572270388460252  0.0617159170230988
  0.4991480299910118  0.3435483130521602  0.3143729009537942
  0.2507116867931448  0.6644526488876765  0.3116727334937360
  0.7482592340294704  0.3450508934268711  0.0618076934292425
  0.4993986833991849  0.6577210278201645  0.0594702591523327
  0.9991699478346049  0.3377253191124027  0.3112338482236243
  0.7478148778645111  0.6555942811810908  0.3107306317609836
  0.2482255095553731  0.3378595551335906  0.5631897436401855
  0.0000436806792090  0.6602949157721900  0.5616054637380518
  0.4994752379174523  0.3382650607811344  0.8129165994462220
  0.2492818575192512  0.6495900268136054  0.8104279118713226
  0.7501497361208860  0.3449074200234151  0.5642150835693900
  0.5008480043623215  0.6574176432023695  0.5621150778830007
  0.9998925550886515  0.3514312194142447  0.8127188533245420
  0.7493335540145947  0.6595185860141143  0.8116855309736569
  0.4981601863765069  0.0842098117908744  0.0782325009973952
  0.2544924460806808  0.9223645299948010  0.0545239587265961
  0.2645886304757730  0.0786522376843513  0.3008746032800728
 -0.0145389268581358  0.9211181708513332  0.3018224373292079
  0.9958457130676982  0.0787331908044357  0.0553433421827863
  0.7537840738071034  0.9158615921175292  0.0774563423894944
  0.7521555403843714  0.0887926548364080  0.2907595781609468
  0.4969772407222744  0.9123039262584319  0.2905791611892760
  0.4968150796881832  0.0836408507316693  0.5789078796295188
  0.2571118686830055  0.9123699905800650  0.5809431620529802
  0.2375922035589296  0.0844488592561925  0.8012560939419686
  0.0116404202058856  0.9162568977368043  0.8009972306321770
  0.9934475282935935  0.0850721361493969  0.5789871644312651
  0.7558222299018986  0.9143330533138213  0.5815354329962087
  0.7546094038532023  0.0872656249167713  0.7953552320976376
  0.4959394828433321  0.9160734455765767  0.7956431414981062
