Li8 Mg4 Bi16 S16 O16                    
   1.00000000000000     
    11.2136547724378559   -0.0220001144804733    0.0007038729757267
    -0.0175672463623346    9.5736799791108975   -0.0764465542315069
     0.0010678435351015   -0.0894195307667282   11.2092122962184053
   Li   Mg   Bi   S    O 
     8     4    16    16    16
Direct
  0.3687525683670328  0.0005878420203288  0.1846170433801819
  0.5727355702118065  0.0171190254562448  0.4167362157110214
  0.1761569883481487 -0.0360240669530499  0.3974986434500832
  0.8934316698799065  0.0296758426323880  0.3039924957468476
  0.1483993233054908  0.0289726000068478  0.9788739930437004
  0.3987352648316782 -0.0046172631176506  0.9393109768762672
  0.1360621601931840  0.0177661462979907  0.6746659637761644
  0.3597777978050232 -0.0061572149858403  0.6858280665827824
  0.6264802116625514  0.0040633014774787  0.1641110802193747
  0.8559446833504066  0.0017784608436489  0.9374646516376414
  0.6150228841246416  0.0001994704038188  0.7016213997393588
  0.8734380733710223 -0.0056485125034972  0.6757363071119309
 -0.0061237890132438  0.3096894898468689  0.0595061000007333
  0.2486202066209401  0.7081626022960924  0.0598019353951009
  0.2451876493322638  0.2888470600418365  0.3098938614499525
  0.4963621091440579  0.6977958574171252  0.3041302940296174
  0.4903996247420561  0.3083576556568215  0.0644081732227244
  0.7474788358817795  0.6918779002830764  0.0628174055567286
  0.7403387049110155  0.3112376586212545  0.3093362060157084
  0.0004135198880163  0.7008433373277325  0.3165386229045744
 -0.0027233358901315  0.3080633189331901  0.5630111657078308
  0.2430130656962780  0.6990666705116853  0.5631871500899035
  0.2427985806318911  0.3015907567407040  0.8099381222683978
  0.4873508478826267  0.6931461468147317  0.8071624675377373
  0.4933410987973209  0.3028558310391161  0.5642639262808251
  0.7418534133245560  0.6835299718761302  0.5639245642775491
  0.7450978623442605  0.3177695122474489  0.8096131053401018
 -0.0117326159347244  0.6845936329733522  0.8135551154060077
  0.2406490008506659  0.3380987689874989  0.0586175369385155
 -0.0073797410657400  0.6731616245072982  0.0628531081795418
  0.4925196829663114  0.3552020006275162  0.3100459548966867
  0.2471490221412265  0.6703151722563042  0.3143221263191754
  0.7411079988171494  0.3374425551114254  0.0595630374304029
  0.4945983427631993  0.6453260378327674  0.0631244806236738
  0.9864834622567363  0.2794777453198572  0.3097446325648858
  0.7457081419924415  0.6637101496755712  0.3127636879946490
  0.2419627376901430  0.3387950928456272  0.5607894054879574
 -0.0085912296322200  0.6525806366524478  0.5661120987058148
  0.4922660236504356  0.3397247299533406  0.8089100587636023
  0.2444054776440978  0.6533971462739455  0.8143447128583291
  0.7414562698843288  0.3443830344177695  0.5616487740790260
  0.4945325124513748  0.6513659678547843  0.5649486983599814
  0.9891526420611111  0.3637878302081158  0.8112197856182918
  0.7414394259719665  0.6358580178405550  0.8145915459072522
  0.4939050761038023  0.0912423492147681  0.0724294736819409
  0.2750007803009035  0.9185050842559225  0.0456281033985307
  0.2696609822884254  0.0823640325153284  0.3046629022126444
  0.0143246769637922  0.9085276935155711  0.3381327408726806
  0.9898958981970061  0.1000603054539378  0.0168292895115643
  0.7434281807020274  0.9117978246454175  0.0528618034677936
  0.7207367318945579  0.0934398751337344  0.2985619786006328
  0.5139233343276954  0.9117909269127406  0.2788977744919220
  0.5137227357553674  0.0862332668033228  0.5761300388767150
  0.2392092168214096  0.9125732460807123  0.5711911004206883
  0.2430758498424000  0.0852572054275021  0.8082340714119641
 -0.0481078207708873  0.9009042293740909  0.8108169722237860
 -0.0010775276455482  0.0984025076852258  0.6008287674285541
  0.7356001752386183  0.9000984768423097  0.5996957791045402
  0.7564798940563965  0.0889141635892941  0.7966974451434123
  0.4853690716709421  0.9125092679793941  0.7958570616660254
 
  0.00000000E+00  0.00000000E+00  0.00000000E+00
  0.00000000E+00  0.00000000E+00  0.00000000E+00
  0.00000000E+00  0.00000000E+00  0.00000000E+00
  0.00000000E+00  0.00000000E+00  0.00000000E+00
  0.00000000E+00  0.00000000E+00  0.00000000E+00
  0.00000000E+00  0.00000000E+00  0.00000000E+00
  0.00000000E+00  0.00000000E+00  0.00000000E+00
  0.00000000E+00  0.00000000E+00  0.00000000E+00
  0.00000000E+00  0.00000000E+00  0.00000000E+00
  0.00000000E+00  0.00000000E+00  0.00000000E+00
  0.00000000E+00  0.00000000E+00  0.00000000E+00
  0.00000000E+00  0.00000000E+00  0.00000000E+00
  0.00000000E+00  0.00000000E+00  0.00000000E+00
  0.00000000E+00  0.00000000E+00  0.00000000E+00
  0.00000000E+00  0.00000000E+00  0.00000000E+00
  0.00000000E+00  0.00000000E+00  0.00000000E+00
  0.00000000E+00  0.00000000E+00  0.00000000E+00
  0.00000000E+00  0.00000000E+00  0.00000000E+00
  0.00000000E+00  0.00000000E+00  0.00000000E+00
  0.00000000E+00  0.00000000E+00  0.00000000E+00
  0.00000000E+00  0.00000000E+00  0.00000000E+00
  0.00000000E+00  0.00000000E+00  0.00000000E+00
  0.00000000E+00  0.00000000E+00  0.00000000E+00
  0.00000000E+00  0.00000000E+00  0.00000000E+00
  0.00000000E+00  0.00000000E+00  0.00000000E+00
  0.00000000E+00  0.00000000E+00  0.00000000E+00
  0.00000000E+00  0.00000000E+00  0.00000000E+00
  0.00000000E+00  0.00000000E+00  0.00000000E+00
  0.00000000E+00  0.00000000E+00  0.00000000E+00
  0.00000000E+00  0.00000000E+00  0.00000000E+00
  0.00000000E+00  0.00000000E+00  0.00000000E+00
  0.00000000E+00  0.00000000E+00  0.00000000E+00
  0.00000000E+00  0.00000000E+00  0.00000000E+00
  0.00000000E+00  0.00000000E+00  0.00000000E+00
  0.00000000E+00  0.00000000E+00  0.00000000E+00
  0.00000000E+00  0.00000000E+00  0.00000000E+00
  0.00000000E+00  0.00000000E+00  0.00000000E+00
  0.00000000E+00  0.00000000E+00  0.00000000E+00
  0.00000000E+00  0.00000000E+00  0.00000000E+00
  0.00000000E+00  0.00000000E+00  0.00000000E+00
  0.00000000E+00  0.00000000E+00  0.00000000E+00
  0.00000000E+00  0.00000000E+00  0.00000000E+00
  0.00000000E+00  0.00000000E+00  0.00000000E+00
  0.00000000E+00  0.00000000E+00  0.00000000E+00
  0.00000000E+00  0.00000000E+00  0.00000000E+00
  0.00000000E+00  0.00000000E+00  0.00000000E+00
  0.00000000E+00  0.00000000E+00  0.00000000E+00
  0.00000000E+00  0.00000000E+00  0.00000000E+00
  0.00000000E+00  0.00000000E+00  0.00000000E+00
  0.00000000E+00  0.00000000E+00  0.00000000E+00
  0.00000000E+00  0.00000000E+00  0.00000000E+00
  0.00000000E+00  0.00000000E+00  0.00000000E+00
  0.00000000E+00  0.00000000E+00  0.00000000E+00
  0.00000000E+00  0.00000000E+00  0.00000000E+00
  0.00000000E+00  0.00000000E+00  0.00000000E+00
  0.00000000E+00  0.00000000E+00  0.00000000E+00
  0.00000000E+00  0.00000000E+00  0.00000000E+00
  0.00000000E+00  0.00000000E+00  0.00000000E+00
  0.00000000E+00  0.00000000E+00  0.00000000E+00
  0.00000000E+00  0.00000000E+00  0.00000000E+00
