Li12 Mg2 Bi16 S16 O16                   
   1.00000000000000     
    11.1750030942483729    0.1059271814995676    0.0057790552259450
     0.0892956090850182    9.4844074402786394    0.0340747432216461
     0.0068425218041572    0.0407305186532099   11.1755382385399731
   Li   Mg   Bi   S    O 
    12     2    16    16    16
Direct
  0.3809943313911332  0.0030758470541185  0.4378305266694137
  0.1344130893403291  0.9794446384799554  0.3089710522422339
  0.6292244766473417  0.0060234645735890  0.4308122441682154
  0.8810940012514773  0.0010224245141570  0.4295493580816993
  0.6233299989049280  0.0060462592470155  0.1930340190739615
  0.8806537193016153 -0.0052258962090768  0.1736086735186395
  0.3698783137102590  0.0103596595413926  0.0698815303068606
  0.1268938601394119  0.0033131149993541  0.6629508053846858
  0.3597750674140675 -0.0081485981549410  0.7072779724589986
  0.6190564671546295 -0.0032317605086409  0.9427815200621853
  0.8648723986313669 -0.0025852104928900  0.9283453803278522
  0.8822870573317325 -0.0044805118291977  0.6848131755282841
  0.1184671912072543 -0.0001508166347908  0.9267525349162551
  0.6266443475142046  0.0037992109055004  0.6810133093575030
 -0.0008953770795301  0.3007206079908441  0.0558533118124088
  0.2477771465114161  0.6898504570963293  0.0574059180056268
  0.2530622821015593  0.3018295443299826  0.3117178103329486
  0.5008242353660324  0.7084021499095337  0.3117206600864700
  0.5035922356586794  0.3056474338659943  0.0592557672353597
  0.7503969404940866  0.6990856079816562  0.0599366232862364
  0.7500197048179904  0.3021786206329350  0.3077098399226689
 -0.0040573166798826  0.6936218677088429  0.3090541281611762
 -0.0007799435463437  0.2947988867572041  0.5565532762435061
  0.2533961400701193  0.7020702050013657  0.5597830768851667
  0.2448445618948749  0.3032882461310558  0.8061472225037748
  0.5008302095284853  0.6974512622123783  0.8085916535907337
  0.5004246976991731  0.3135590982788118  0.5559897602919168
  0.7514594702775504  0.6930691773362776  0.5582285683698204
  0.7481914892086265  0.3056360956524188  0.8070393405629614
  0.0001138570816037  0.6877326484171307  0.8085488284982033
  0.2532443536324224  0.2803907137898572  0.0558794129547142
  0.0000308083922608  0.6463740105840173  0.0586112073260276
  0.5015466688010553  0.3541686938760135  0.3069167330648594
  0.2444868834378952  0.7175412627724127  0.3085514984923988
  0.7521018291148638  0.3497215517156442  0.0579259931961454
  0.4992111760615051  0.6857735035493192  0.0585122973879784
  0.0008033931588436  0.3258568768531099  0.3079126166936634
  0.7476700994870243  0.6497812892537435  0.3083878280344328
  0.2521610165938101  0.3495998161918947  0.5591551794406037
 -0.0015861337325427  0.6649199285644578  0.5596726553190624
  0.5037323218778397  0.3384587914233044  0.8072981674960790
  0.2467049783366778  0.6445905619804436  0.8101423573945390
  0.7525528115657060  0.3524302296931741  0.5601158660294447
  0.5010137709372848  0.6489859778111948  0.5606894523459859
  0.0011674042892619  0.3544954697038800  0.8081553084928217
  0.7462904637864306  0.6501198441863253  0.8081198651452849
  0.5233364356002788  0.0896096655001560  0.0638682223349749
  0.2362763989421020  0.9032718351759743  0.0309225802172239
  0.2645864891291209  0.0915821410818450  0.3319189528011405
 -0.0229973876011561  0.9102325687080776  0.3028619953796742
 -0.0138211588012252  0.0835749739059786  0.0307699135784550
  0.7539982580841059  0.9182845991668921  0.0549603026451952
  0.7494746980282706  0.0835123079118675  0.3103157295902273
  0.5189930072796298  0.9211095233291328  0.3261875396833009
  0.5162440156367019  0.0915213223818881  0.5598700334594890
  0.2691562786972734  0.9151765484980157  0.5797690060900202
  0.2198291374344064  0.0853715918426716  0.7952542517868417
 -0.0025888081249958  0.9115737778467866  0.8140332669681679
  0.9859278398252319  0.0797073249311743  0.5690356011640127
  0.7448521204831290  0.9167680330448154  0.5658723170904846
  0.7459142110337880  0.0806515293262425  0.8001039714893524
  0.5129019652688088  0.9167100006113521  0.7933919890216573
 
  0.00000000E+00  0.00000000E+00  0.00000000E+00
  0.00000000E+00  0.00000000E+00  0.00000000E+00
  0.00000000E+00  0.00000000E+00  0.00000000E+00
  0.00000000E+00  0.00000000E+00  0.00000000E+00
  0.00000000E+00  0.00000000E+00  0.00000000E+00
  0.00000000E+00  0.00000000E+00  0.00000000E+00
  0.00000000E+00  0.00000000E+00  0.00000000E+00
  0.00000000E+00  0.00000000E+00  0.00000000E+00
  0.00000000E+00  0.00000000E+00  0.00000000E+00
  0.00000000E+00  0.00000000E+00  0.00000000E+00
  0.00000000E+00  0.00000000E+00  0.00000000E+00
  0.00000000E+00  0.00000000E+00  0.00000000E+00
  0.00000000E+00  0.00000000E+00  0.00000000E+00
  0.00000000E+00  0.00000000E+00  0.00000000E+00
  0.00000000E+00  0.00000000E+00  0.00000000E+00
  0.00000000E+00  0.00000000E+00  0.00000000E+00
  0.00000000E+00  0.00000000E+00  0.00000000E+00
  0.00000000E+00  0.00000000E+00  0.00000000E+00
  0.00000000E+00  0.00000000E+00  0.00000000E+00
  0.00000000E+00  0.00000000E+00  0.00000000E+00
  0.00000000E+00  0.00000000E+00  0.00000000E+00
  0.00000000E+00  0.00000000E+00  0.00000000E+00
  0.00000000E+00  0.00000000E+00  0.00000000E+00
  0.00000000E+00  0.00000000E+00  0.00000000E+00
  0.00000000E+00  0.00000000E+00  0.00000000E+00
  0.00000000E+00  0.00000000E+00  0.00000000E+00
  0.00000000E+00  0.00000000E+00  0.00000000E+00
  0.00000000E+00  0.00000000E+00  0.00000000E+00
  0.00000000E+00  0.00000000E+00  0.00000000E+00
  0.00000000E+00  0.00000000E+00  0.00000000E+00
  0.00000000E+00  0.00000000E+00  0.00000000E+00
  0.00000000E+00  0.00000000E+00  0.00000000E+00
  0.00000000E+00  0.00000000E+00  0.00000000E+00
  0.00000000E+00  0.00000000E+00  0.00000000E+00
  0.00000000E+00  0.00000000E+00  0.00000000E+00
  0.00000000E+00  0.00000000E+00  0.00000000E+00
  0.00000000E+00  0.00000000E+00  0.00000000E+00
  0.00000000E+00  0.00000000E+00  0.00000000E+00
  0.00000000E+00  0.00000000E+00  0.00000000E+00
  0.00000000E+00  0.00000000E+00  0.00000000E+00
  0.00000000E+00  0.00000000E+00  0.00000000E+00
  0.00000000E+00  0.00000000E+00  0.00000000E+00
  0.00000000E+00  0.00000000E+00  0.00000000E+00
  0.00000000E+00  0.00000000E+00  0.00000000E+00
  0.00000000E+00  0.00000000E+00  0.00000000E+00
  0.00000000E+00  0.00000000E+00  0.00000000E+00
  0.00000000E+00  0.00000000E+00  0.00000000E+00
  0.00000000E+00  0.00000000E+00  0.00000000E+00
  0.00000000E+00  0.00000000E+00  0.00000000E+00
  0.00000000E+00  0.00000000E+00  0.00000000E+00
  0.00000000E+00  0.00000000E+00  0.00000000E+00
  0.00000000E+00  0.00000000E+00  0.00000000E+00
  0.00000000E+00  0.00000000E+00  0.00000000E+00
  0.00000000E+00  0.00000000E+00  0.00000000E+00
  0.00000000E+00  0.00000000E+00  0.00000000E+00
  0.00000000E+00  0.00000000E+00  0.00000000E+00
  0.00000000E+00  0.00000000E+00  0.00000000E+00
  0.00000000E+00  0.00000000E+00  0.00000000E+00
  0.00000000E+00  0.00000000E+00  0.00000000E+00
  0.00000000E+00  0.00000000E+00  0.00000000E+00
  0.00000000E+00  0.00000000E+00  0.00000000E+00
  0.00000000E+00  0.00000000E+00  0.00000000E+00
