Li14 Mg1 Bi16 S16 O16                   
   1.00000000000000     
    11.1189390906063501   -0.0005232335430804   -0.0000401511672028
    -0.0004673244457923    9.4026163457886458   -0.0132457766704731
    -0.0000414638936238   -0.0160045869780229   11.1176675959106355
   Li   Mg   Bi   S    O 
    14     1    16    16    16
Direct
  0.1250043126872446  0.0009798226422263  0.2008556287833810
  0.3753127743192701  0.0016098823585710  0.1797763270399325
  0.6308052617864157  0.9999041601861511  0.4373817211843271
  0.8900424591883784  0.0001821389100994  0.4373034588358805
  0.6262563459287532  0.0013230871081785  0.1880926011337017
  0.8741592639648968  0.0009374636931301  0.1844908337379825
  0.1229645493164900  0.0000178958787419  0.9373587438971730
  0.3723281468366239 -0.0000093705895379  0.9374177709074961
  0.1250399469032827 -0.0009718272939712  0.6737060115270611
  0.3753479367370786 -0.0015708955866048  0.6950883656560879
  0.6267303625982031 -0.0000039196134374  0.9373918272134107
  0.8777720770777431  0.0000204366029725  0.9373663532772231
  0.6261836634872736  0.9986982514618620  0.6866532934650311
  0.8740955106418458 -0.0009101124154494  0.6902631200811346
  0.3686608066694612 -0.0000777759560556  0.4374623388075072
 -0.0006115375627770  0.3008864052513830  0.0620856806120281
  0.2490943321012035  0.7006748578889768  0.0621697003614776
  0.2498302911945618  0.3060983799651139  0.3108599925619461
  0.4998672817080942  0.6921263558165747  0.3130059265667144
  0.5001977648287913  0.2997784835983570  0.0620606990735508
  0.7507967423891211  0.7005824162490184  0.0624933084372542
  0.7501500456619411  0.3005228713066141  0.3122227246281800
 -0.0023081216726824  0.7040216015255673  0.3110853014818011
 -0.0023131517796008  0.2961276046676943  0.5640056041781866
  0.2498415080733934  0.6938082158126766  0.5642694842966943
  0.2491106075155373  0.2993326641020094  0.8129416710117090
  0.5001888821858865  0.7002300486256030  0.8130312305047144
  0.4998502559306757  0.3077897892476555  0.5620939843254125
  0.7501362693041328  0.6994743293647131  0.5628492011391127
  0.7507922059571197  0.2994339088521924  0.8125737793800142
  0.9993699989004611  0.6991396289058396  0.8129967176218098
  0.2506313862928977  0.3465160628981640  0.0619969069671922
  0.0001181765058778  0.6517645157764168  0.0628431299804879
  0.4992016308118457  0.3511798010780297  0.3127755113142773
  0.2510678527383031  0.6635708727767512  0.3140052585560746
  0.7491608729329845  0.3451845277769713  0.0622251231655369
  0.4999488751081647  0.6580312789700822  0.0625839804627718
  0.9994223611786619  0.3343109431618803  0.3121825551924406
  0.7493082523070231  0.6540485545819396  0.3129490391932187
  0.2510334738294679  0.3364310111633262  0.5613343200805072
 -0.0005293713089840  0.6657323604424177  0.5631076623755301
  0.4999159135481220  0.3420313453887617  0.8127305547044916
  0.2506511401605669  0.6535214604182044  0.8133385037883947
  0.7492590489107905  0.3459457492552230  0.5623679340382779
  0.4992434134241686  0.6487454343183825  0.5625573711393002
  0.0000874343271641  0.3481861085915959  0.8124526042448499
  0.7491800487688134  0.6547856475764630  0.8130869347052433
  0.5007253749615241  0.0773379751730597  0.0635026381685645
 -0.0128183342427681  0.9207610416612306  0.2984358295399385
  0.2500497103196480  0.9223629502130312  0.0614799979869211
  0.2698315039854635  0.0848157903156108  0.3043876215418592
 -0.0005541567742965  0.0797592472658123  0.0594635817401696
  0.4947661588662783  0.9180763274949038  0.3210112744048487
  0.7494451326917174  0.9224889239819088  0.0618235348541112
  0.7447907259967137  0.0790708864529494  0.3112006373378343
  0.4946952269829107  0.0818447668589944  0.5540189501922410
 -0.0006085116535659  0.9202610993820595  0.8154214233010297
  0.2697871588614406  0.9151229326808641  0.5705688983706453
  0.2500935033902315  0.0776554277433624  0.8134669424498717
  0.9871693179298534  0.0793561100041611  0.5763961603504945
  0.5007043383870746  0.9226705640365593  0.8114397121048651
  0.7447150726935435  0.9209133260341382  0.5637268512573055
  0.7494204751895380  0.0775301579598787  0.8130551547628201
 
  0.00000000E+00  0.00000000E+00  0.00000000E+00
  0.00000000E+00  0.00000000E+00  0.00000000E+00
  0.00000000E+00  0.00000000E+00  0.00000000E+00
  0.00000000E+00  0.00000000E+00  0.00000000E+00
  0.00000000E+00  0.00000000E+00  0.00000000E+00
  0.00000000E+00  0.00000000E+00  0.00000000E+00
  0.00000000E+00  0.00000000E+00  0.00000000E+00
  0.00000000E+00  0.00000000E+00  0.00000000E+00
  0.00000000E+00  0.00000000E+00  0.00000000E+00
  0.00000000E+00  0.00000000E+00  0.00000000E+00
  0.00000000E+00  0.00000000E+00  0.00000000E+00
  0.00000000E+00  0.00000000E+00  0.00000000E+00
  0.00000000E+00  0.00000000E+00  0.00000000E+00
  0.00000000E+00  0.00000000E+00  0.00000000E+00
  0.00000000E+00  0.00000000E+00  0.00000000E+00
  0.00000000E+00  0.00000000E+00  0.00000000E+00
  0.00000000E+00  0.00000000E+00  0.00000000E+00
  0.00000000E+00  0.00000000E+00  0.00000000E+00
  0.00000000E+00  0.00000000E+00  0.00000000E+00
  0.00000000E+00  0.00000000E+00  0.00000000E+00
  0.00000000E+00  0.00000000E+00  0.00000000E+00
  0.00000000E+00  0.00000000E+00  0.00000000E+00
  0.00000000E+00  0.00000000E+00  0.00000000E+00
  0.00000000E+00  0.00000000E+00  0.00000000E+00
  0.00000000E+00  0.00000000E+00  0.00000000E+00
  0.00000000E+00  0.00000000E+00  0.00000000E+00
  0.00000000E+00  0.00000000E+00  0.00000000E+00
  0.00000000E+00  0.00000000E+00  0.00000000E+00
  0.00000000E+00  0.00000000E+00  0.00000000E+00
  0.00000000E+00  0.00000000E+00  0.00000000E+00
  0.00000000E+00  0.00000000E+00  0.00000000E+00
  0.00000000E+00  0.00000000E+00  0.00000000E+00
  0.00000000E+00  0.00000000E+00  0.00000000E+00
  0.00000000E+00  0.00000000E+00  0.00000000E+00
  0.00000000E+00  0.00000000E+00  0.00000000E+00
  0.00000000E+00  0.00000000E+00  0.00000000E+00
  0.00000000E+00  0.00000000E+00  0.00000000E+00
  0.00000000E+00  0.00000000E+00  0.00000000E+00
  0.00000000E+00  0.00000000E+00  0.00000000E+00
  0.00000000E+00  0.00000000E+00  0.00000000E+00
  0.00000000E+00  0.00000000E+00  0.00000000E+00
  0.00000000E+00  0.00000000E+00  0.00000000E+00
  0.00000000E+00  0.00000000E+00  0.00000000E+00
  0.00000000E+00  0.00000000E+00  0.00000000E+00
  0.00000000E+00  0.00000000E+00  0.00000000E+00
  0.00000000E+00  0.00000000E+00  0.00000000E+00
  0.00000000E+00  0.00000000E+00  0.00000000E+00
  0.00000000E+00  0.00000000E+00  0.00000000E+00
  0.00000000E+00  0.00000000E+00  0.00000000E+00
  0.00000000E+00  0.00000000E+00  0.00000000E+00
  0.00000000E+00  0.00000000E+00  0.00000000E+00
  0.00000000E+00  0.00000000E+00  0.00000000E+00
  0.00000000E+00  0.00000000E+00  0.00000000E+00
  0.00000000E+00  0.00000000E+00  0.00000000E+00
  0.00000000E+00  0.00000000E+00  0.00000000E+00
  0.00000000E+00  0.00000000E+00  0.00000000E+00
  0.00000000E+00  0.00000000E+00  0.00000000E+00
  0.00000000E+00  0.00000000E+00  0.00000000E+00
  0.00000000E+00  0.00000000E+00  0.00000000E+00
  0.00000000E+00  0.00000000E+00  0.00000000E+00
  0.00000000E+00  0.00000000E+00  0.00000000E+00
  0.00000000E+00  0.00000000E+00  0.00000000E+00
  0.00000000E+00  0.00000000E+00  0.00000000E+00
