Li Mg Bi  S  O 
 1.0000000000000000
    11.1784999999999997    0.0000000000000000    0.0000000000000000
     0.0000000000000000    9.5746000000000002    0.0000000000000000
     0.0000000000000000    0.0000000000000000   11.1823999999999995
 Li  Mg  Bi  S   O  
   6   5  16  16  16
Direct
  0.3078065527521304 -0.0133734704890102  0.4494632793948590
  0.6065112993718604  0.9262404959238372  0.4253306071937620
  0.8682203722759445 -0.0629346166508453  0.4140180646649546
  0.1695285749611656  0.8861340583306644  0.9369379429433866
  0.3845728293866324 -0.0387228454919019  1.1728380764850652
  0.3273791113385109 -0.1744305885870052  0.7194790848991782
  0.1244039115926062  0.9650348247838714  0.2361018186511801
  0.6405086793325755  0.9313384833639005  0.2087099324529828
  0.0862439149096946  0.9382719524416987  0.5964035354935417
  0.8865714089773394 -0.0789491542953090  1.0129407745643906
  0.7259116071384342  0.8406391247947550  0.7589408764728818
  0.0045761387858564  0.2643812844531968  0.0709685298388922
  0.2399691468596490  0.6384448802753223  0.0849848889462315
  0.2471032696689270  0.2648832312211392  0.2636407875864881
  0.4686868441569244  0.6464949898520580  0.3262920666430968
  0.4979409060581606  0.2860257046774373  0.0916486911519512
  0.7292156229688851  0.6097779301410712  0.0736140835329053
  0.7554289106142776  0.2095719377764269  0.3508804674980283
  0.9613815084053997  0.6609465760482053  0.3279242177062516
 -0.0065646877202740  0.2641781342250144  0.6127000572996585
  0.2162269824943145  0.5678196857136864  0.6139224998428975
  0.2760794152642612  0.1325078319312448  0.8091121830742622
  0.5130624177012568  0.6179115152874540  0.7961551723152295
  0.4977160604675551  0.2587643456850588  0.5670725396407647
  0.7391797745757774  0.5611936852366779  0.5670312006248354
  0.7375002151914553  0.1841442151728718  0.8594571261002454
  0.9931634531442122  0.5573865084971326  0.8578383606053230
  0.2419352924572547  0.2658149405897083  0.0271559899381823
 -0.0128907043623675  0.5422564576246059  0.1062190124885307
  0.4856462110085579  0.2796977823192956  0.3259405694173663
  0.2135483805023362  0.6264092824011029  0.3133722036238883
  0.7585775543971502  0.2739567563575270  0.1288327524681810
  0.4667633987851553  0.6167248190453691  0.0752062939711035
  1.0218410190760214  0.2795405574369634  0.3581918052894906
  0.6915785085375111  0.5808121439844972  0.3029122179478434
  0.2450262709606172  0.2027476061334500  0.5700279589861816
 -0.0095091084912879  0.7163660827380087  0.5592799575732100
  0.5054469025696974  0.2193183543813363  0.8207751980754188
  0.2428809308720912  0.6025557007204575  0.8568378990641731
  0.7412409991224571  0.2915732941711539  0.5771973928078861
  0.4862388867925407  0.5589115562866215  0.5447098254862328
  0.9600905472144736  0.2832937953303667  0.8430529306084948
  0.7616451667731210  0.5988148998425198  0.8123712205758878
  0.5311440121610516  0.0837815391852592  0.1222976660617355
  0.2363048605693015  0.8711111336217244  0.0928412379939857
  0.2713481140097516  0.0479923691384887  0.2887483212598148
  0.0305474800983075  0.9258685153618740  0.3634819064138248
  1.0038129889007550  0.0459454596713786  0.1075949635965588
  0.7512794716222955  0.8257529749060987  0.0975548122003984
  0.7346842546258082 -0.0400207285641749  0.3378566277930641
  0.4956675892646722  0.8564702314583941  0.2918310867703671
  0.5022702043631766  0.0633770941314568  0.5148765599221508
  0.2775799362007310  0.7571178906104211  0.5597807225576947
  0.2052072586282678 -0.0632978027515502  0.7678408370451104
  0.0051997950517497  0.7997012903164744  0.9501777407945338
  0.9460880001660729  0.0522328241740588  0.6095908140378395
  0.7228646925839776  0.7513542119340386  0.5401436839652684
  0.7814324311634656 -0.0241958014301972  0.8724712378562833
  0.5436105677112093  0.8201395532247628  0.7681762125699926
