Li12 Mg2 Bi16 S16 O16                   
   1.00000000000000     
    11.1343425348841301    0.0102469190924142   -0.0000096015722057
     0.0084030269533575    9.4435087526265988    0.0000139754648169
    -0.0000123007106642   -0.0000174931952363   11.1376491805153623
   Li   Mg   Bi   S    O 
    12     2    16    16    16
Direct
  0.3653503775974304 -0.0015229991731441  0.4444169051913110
  0.1249994439076948  0.0000013811041552  0.1985619815855785
  0.6250002556532483  0.0000095527263055  0.4243385814249601
  0.8846524417883576  0.0015446981740846  0.4444243292524562
  0.1250144659333570  0.9999966612180714  0.9367804945617677
  0.3734148724461367  0.0022516358899141  0.9287843407569872
  0.1250058158271186  0.0000124199977196  0.6739458049502622
  0.3795964159698318 -0.0000132449650755  0.6879730892479182
  0.6250110547412208  0.0000024806650545  0.9492752030370226
  0.8766036842985746 -0.0022445367179841  0.9287894470390757
  0.6250048995766354  0.0000114657430004  0.6846589433323362
  0.8704159614247758  0.0000282354810249  0.6879784161445675
  0.3866157061866258 -0.0034183189700044  0.1837473777438607
  0.8633775590065139  0.0034280585248218  0.1837537066190433
 -0.0006876676828462  0.3077924920330120  0.0632558782395598
  0.2506864876959876  0.6922091269569481  0.0632485925198207
  0.2514581068364043  0.3035637237759918  0.3122769033602638
  0.4979957343707490  0.6934505829375138  0.3160779951345003
  0.4981867709135898  0.3052047857012022  0.0602352289225139
  0.7518131622839012  0.6948025461139411  0.0602335687170853
  0.7519966101343344  0.3065598388543677  0.3160837240907064
 -0.0014650607880381  0.6964429025019350  0.3122736847345958
 -0.0012536963955893  0.2964997018063412  0.5652514111337076
  0.2512518766814272  0.7035275143373712  0.5652453613359932
  0.2495593227828113  0.3002865188350314  0.8121233976524787
  0.4997824632520602  0.7012809921595472  0.8116144450912648
  0.4997808590048045  0.2997050426531928  0.5628656430078428
  0.7502177390521956  0.7003199437771469  0.5628629700827230
  0.7502234770787631  0.2987310963166709  0.8116192909200393
  0.0004435510760329  0.6997249244003174  0.8121222897847545
  0.2513549940430558  0.3525228287756831  0.0632930070222293
 -0.0013645316089741  0.6474804121884695  0.0632909441839812
  0.4997339772026378  0.3408143967950702  0.3113601148602291
  0.2502956345413225  0.6550602728600952  0.3112967503593113
  0.7513390438791420  0.3350624640396554  0.0638617416880659
  0.4986525985352289  0.6649365466249053  0.0638587858196972
  0.9996904418724524  0.3449552574396479  0.3113019542693866
  0.7502509037636571  0.6592036832195294  0.3113554651064775
  0.2508128100032436  0.3340462035000624  0.5634328480893769
 -0.0008251141019127  0.6659774977241576  0.5634311968397067
  0.5004825744039393  0.3471679651531741  0.8129602378563966
  0.2499045734681677  0.6528262217921780  0.8131222712308351
  0.7503898734473653  0.3507141529218166  0.5635011083996389
  0.4995979155742856  0.6493095363087237  0.5634987370882191
  0.0000869373969478  0.3471831187529051  0.8131297170154772
  0.7495087982340903  0.6528454010408689  0.8129556126828199
  0.4834988564696212  0.0842889614828242  0.0518743014175083
  0.2560838998122841  0.9172366143661939  0.0687368851354337
  0.2657794919942482  0.0852414585565021  0.2923713243607752
 -0.0157856286831928  0.9147662112935100  0.2923740007245912
  0.9939174268996266  0.0827666864597118  0.0687480171902856
  0.7665034260225222  0.9157178283481048  0.0518725493010409
  0.7673393398852594  0.0857913973690624  0.3206489016216277
  0.4826541057876137  0.9142207388921462  0.3206437551620228
  0.5027925768350795  0.0797223204739474  0.5625426921667182
  0.2641652367582330  0.9189677986641560  0.5778298094789422
  0.2489358182598544  0.0798779164750029  0.8173122361413435
  0.0010799224362687  0.9201331617114175  0.8173155025194730
  0.9858405440859146  0.0810593651403211  0.5778352092678382
  0.7472149831691440  0.9203020230979326  0.5625450853304123
  0.7494496259258616  0.0781036700017974  0.8116125047205017
  0.5005662530329014  0.9219086656719245  0.8116077273346682
 
  0.00000000E+00  0.00000000E+00  0.00000000E+00
  0.00000000E+00  0.00000000E+00  0.00000000E+00
  0.00000000E+00  0.00000000E+00  0.00000000E+00
  0.00000000E+00  0.00000000E+00  0.00000000E+00
  0.00000000E+00  0.00000000E+00  0.00000000E+00
  0.00000000E+00  0.00000000E+00  0.00000000E+00
  0.00000000E+00  0.00000000E+00  0.00000000E+00
  0.00000000E+00  0.00000000E+00  0.00000000E+00
  0.00000000E+00  0.00000000E+00  0.00000000E+00
  0.00000000E+00  0.00000000E+00  0.00000000E+00
  0.00000000E+00  0.00000000E+00  0.00000000E+00
  0.00000000E+00  0.00000000E+00  0.00000000E+00
  0.00000000E+00  0.00000000E+00  0.00000000E+00
  0.00000000E+00  0.00000000E+00  0.00000000E+00
  0.00000000E+00  0.00000000E+00  0.00000000E+00
  0.00000000E+00  0.00000000E+00  0.00000000E+00
  0.00000000E+00  0.00000000E+00  0.00000000E+00
  0.00000000E+00  0.00000000E+00  0.00000000E+00
  0.00000000E+00  0.00000000E+00  0.00000000E+00
  0.00000000E+00  0.00000000E+00  0.00000000E+00
  0.00000000E+00  0.00000000E+00  0.00000000E+00
  0.00000000E+00  0.00000000E+00  0.00000000E+00
  0.00000000E+00  0.00000000E+00  0.00000000E+00
  0.00000000E+00  0.00000000E+00  0.00000000E+00
  0.00000000E+00  0.00000000E+00  0.00000000E+00
  0.00000000E+00  0.00000000E+00  0.00000000E+00
  0.00000000E+00  0.00000000E+00  0.00000000E+00
  0.00000000E+00  0.00000000E+00  0.00000000E+00
  0.00000000E+00  0.00000000E+00  0.00000000E+00
  0.00000000E+00  0.00000000E+00  0.00000000E+00
  0.00000000E+00  0.00000000E+00  0.00000000E+00
  0.00000000E+00  0.00000000E+00  0.00000000E+00
  0.00000000E+00  0.00000000E+00  0.00000000E+00
  0.00000000E+00  0.00000000E+00  0.00000000E+00
  0.00000000E+00  0.00000000E+00  0.00000000E+00
  0.00000000E+00  0.00000000E+00  0.00000000E+00
  0.00000000E+00  0.00000000E+00  0.00000000E+00
  0.00000000E+00  0.00000000E+00  0.00000000E+00
  0.00000000E+00  0.00000000E+00  0.00000000E+00
  0.00000000E+00  0.00000000E+00  0.00000000E+00
  0.00000000E+00  0.00000000E+00  0.00000000E+00
  0.00000000E+00  0.00000000E+00  0.00000000E+00
  0.00000000E+00  0.00000000E+00  0.00000000E+00
  0.00000000E+00  0.00000000E+00  0.00000000E+00
  0.00000000E+00  0.00000000E+00  0.00000000E+00
  0.00000000E+00  0.00000000E+00  0.00000000E+00
  0.00000000E+00  0.00000000E+00  0.00000000E+00
  0.00000000E+00  0.00000000E+00  0.00000000E+00
  0.00000000E+00  0.00000000E+00  0.00000000E+00
  0.00000000E+00  0.00000000E+00  0.00000000E+00
  0.00000000E+00  0.00000000E+00  0.00000000E+00
  0.00000000E+00  0.00000000E+00  0.00000000E+00
  0.00000000E+00  0.00000000E+00  0.00000000E+00
  0.00000000E+00  0.00000000E+00  0.00000000E+00
  0.00000000E+00  0.00000000E+00  0.00000000E+00
  0.00000000E+00  0.00000000E+00  0.00000000E+00
  0.00000000E+00  0.00000000E+00  0.00000000E+00
  0.00000000E+00  0.00000000E+00  0.00000000E+00
  0.00000000E+00  0.00000000E+00  0.00000000E+00
  0.00000000E+00  0.00000000E+00  0.00000000E+00
  0.00000000E+00  0.00000000E+00  0.00000000E+00
  0.00000000E+00  0.00000000E+00  0.00000000E+00
