Li Mg Bi  S  O 
 1.0000000000000000
    11.1784999999999997    0.0000000000000000    0.0000000000000000
     0.0000000000000000    9.5746000000000002    0.0000000000000000
     0.0000000000000000    0.0000000000000000   11.1823999999999995
 Li  Mg  Bi  S   O  
   4   6  16  16  16
Direct
  0.1534049210570555 -0.0494689846656310  0.4335435093661003
  0.5859265066529781  0.9683399544846093  0.1542016149275216
  0.6180038880575320  0.9754129450577215  0.9328503317760882
  0.5611472831980983  1.0094848020258160  0.7176148510926476
  0.1006262970405943  0.9622455954626901  0.1688414250339471
  0.6296050009129074  0.9756083470879677  0.4339079771074558
  0.8943101371114840 -0.0267564394327440  0.4266488184149130
  0.3475806464549423 -0.0184594740847485  0.9401699547593890
  0.1194064826627560  0.9770024897206615  0.7038604759715879
  0.8725009208370728 -0.0299139513894194  0.9314130758432567
 -0.0120320745279305  0.2764839665789307  0.0636255658841640
  0.2441213477472615  0.6655005530505123  0.0605411532513571
  0.2416253194284441  0.2689923163348976  0.3055818159669730
  0.4908645959159657  0.6835846007033403  0.3078052077817659
  0.4948838632960447  0.2879324571251244  0.0560766300291361
  0.7468206008762707  0.6637912839064524  0.0653376195719673
  0.7476603491299719  0.2945403301124785  0.3256137303697702
  0.9995566389506010  0.6509700488762824  0.3081599800188674
  0.0051016746518962  0.2758349122870637  0.5636373370900786
  0.2506512098972516  0.6692137236497577  0.5677046643617719
  0.2486693513739432  0.2905148423308830  0.8106976720448962
  0.4978910852496934  0.6819890683565818  0.8111950479138149
  0.4979896984718546  0.2792291796947036  0.5524965443146937
  0.7481570465079896  0.6581616665982296  0.5448113541769442
  0.7459058914431579  0.2797423299439609  0.8106731414446690
  0.9915203397181638  0.6689226253036374  0.8018015898685488
  0.2491278737010416  0.3225400297168718  0.0645541983122881
  0.0039980796364206  0.6332592863591863  0.0657328598472469
  0.4968400547964580  0.3092516360799644  0.3108884221869123
  0.2579916352141007  0.7270569367370097  0.3300696596156222
  0.7463642328015977  0.3251795345354263  0.0569874106657822
  0.4918679454315336  0.6316458597092343  0.0571987377001343
  0.9919777720812715  0.3267241046640497  0.3211637718918675
  0.7527709658415728  0.6165714558403192  0.3042673101924048
  0.2483272975495229  0.3131453474352902  0.5585360919776642
  0.0055672662860902  0.6193833953093100  0.5565246631696265
  0.4954907661627147  0.3278675805337424  0.8085041244335275
  0.2433526512886274  0.6260385627415073  0.8136240743871727
  0.7444147785742704  0.3344077432548092  0.5671148951373416
  0.4982678669241620  0.6513047581418532  0.5560773470536891
  1.0015242963336293  0.3154848018915637  0.8142573302764884
  0.7445953705858477  0.6546162563137733  0.7881689905431932
  0.4896802553953429  0.0707694185693213  0.0346761618098846
  0.2320498396080045  0.8847141942667969  0.0530299948383038
  0.1933135778733372  0.0656239839595969  0.2925354630584478
 -0.0031614207674554  0.8718043238212236  0.3049443649023598
  0.9832793035899744  0.0573158959127760  0.0573314999979689
  0.7365921788297127  0.8791833711575109  0.0308062992227494
  0.7592493092462501  0.0784522230435717  0.3492391566554808
  0.5412121925551330  0.8884754897863323  0.3005831941095100
  0.5389494077201309  0.0704647667474027  0.5616125899574248
  0.2210882544654287  0.8775913430224639  0.5891523248374018
  0.2397649284242200  0.0712583240862322  0.8159581155714919
 -0.0070182633675508  0.8880740758867073  0.8108506649226007
  1.0156108689410741  0.0543627214546989  0.5501734289630112
  0.7629005834567864  0.8700789268865341  0.5093599287092290
  0.7408241863746176  0.0651482709377961  0.8315163957133246
  0.4834680577680045  0.8975984988187927  0.8345569376569841
