Li Mg Bi  S  O 
 1.0000000000000000
    11.1784999999999997    0.0000000000000000    0.0000000000000000
     0.0000000000000000    9.5746000000000002    0.0000000000000000
     0.0000000000000000    0.0000000000000000   11.1823999999999995
 Li  Mg  Bi  S   O  
  12   2  16  16  16
Direct
  0.3719085259439963 -0.0019900130275860  0.4344643979912008
  0.1251834168603616  0.9996978495897364  0.2033644003569211
  0.3753996419030093 -0.0006779052964605  0.1867439834094997
  0.6241284450040119  1.0001969245943023  0.2045802238559372
  0.8751259495298831 -0.0003711790376095  0.1839570939674590
  0.1269460831570277  0.9995986156712051  0.9391867784741609
  0.3725348275661938  0.0026431035312692  0.9393323978187367
  0.1251387953694121  0.9997688039565474  0.6714857996792017
  0.3698974358451844  0.0035448272582117  0.6885027812788116
  0.6236592290470290  0.9991690832514605  0.9428490880810785
  0.8782045263115237 -0.0029051760297118  0.9410001644224497
  0.8827077686674956 -0.0015840003956835  0.6963825736057512
  0.8723436770857336 -0.0020294583757242  0.4392168880775838
  0.6276780714313245  0.9969865396362791  0.6777013761438626
  0.0000292389627444  0.2941101597504683  0.0624452665329272
  0.2511261153797325  0.7052618154439734  0.0622233928146327
  0.2515237445091795  0.2916977346860258  0.3117293227101934
  0.4975215009280004  0.7058220828116948  0.3107697065904561
  0.4988263514393482  0.2953780256843510  0.0632057631099752
  0.7502552609052854  0.7053264650149975  0.0628712033443155
  0.7510933596960719  0.3008624886460528  0.3113885851339477
  1.0002365584351964  0.6985735624139843  0.3116626750615977
  0.0001648170339581  0.2994099043853546  0.5631972329364475
  0.2508799459270894  0.7085864471130121  0.5627973281603172
  0.2493941009943091  0.2959042822306187  0.8129982024414940
  0.5010497791908860  0.6964087304074555  0.8114383198921622
  0.4983927542727791  0.3001669302439430  0.5633820037672884
  0.7523791327894234  0.6907900748041331  0.5632281275797417
  0.7490544559879371  0.3013964712686458  0.8127295565868226
  1.0025086243231300  0.7044146543379135  0.8141500741485216
  0.2502958462938857  0.3437411198408671  0.0614361682220190
 -0.0010832614570008  0.6579364303840565  0.0628746270124079
  0.5015491470152615  0.3357837101668459  0.3119050021005506
  0.2490116007563571  0.6640500942664689  0.3123964588890941
  0.7518614271344557  0.3403383194601907  0.0622812644597561
  0.5015187394532095  0.6583394209470783  0.0613465635286374
  1.0004446291547842  0.3383835361995207  0.3152984253172922
  0.7493099321182719  0.6609416703196603  0.3162366004856171
  0.2516762751989922  0.3339035365730261  0.5639822989664998
 -0.0009451090079791  0.6625921838211311  0.5628488518975759
  0.5032659628572582  0.3456544729897868  0.8133667668302900
  0.2505102006003918  0.6575532322107738  0.8129988702071711
  0.7480202126805855  0.3394646325229028  0.5627590231203600
  0.5021874376182391  0.6635702591568250  0.5641520690518033
  0.9995563673296078  0.3409049597299019  0.8116537013321952
  0.7505286569551456  0.6567769693854708  0.8116321155878709
  0.4995061742818668  0.0779031735932531  0.0573846112584030
  0.2503647853186877  0.9221960037571889  0.0591549552174745
  0.2604515428199995  0.0795429118981122  0.2987110108648022
 -0.0200392857059126  0.9152501149051934  0.3091926451514188
  1.0000705068038447  0.0764206416090812  0.0625546718827412
  0.7509789200902083  0.9231801452544722  0.0600020258204756
  0.7672024570456109  0.0832962093488770  0.3091665213192420
  0.4893290992963177  0.9183340548240196  0.2992755565739219
  0.4965363794897744  0.0841243062910513  0.5821627131451838
  0.2612210396975292  0.9210340548206876  0.5751512826399841
  0.2517727200836379  0.0782867668924515  0.8157885571080119
 -0.0000118546549363  0.9225189823456873  0.8154717474498475
  0.9790129384928248  0.0823162432915857  0.5684975391691670
  0.7627478857789154  0.9144328576907224  0.5743507437191390
  0.7429497296722822  0.0791581724450489  0.8033062244747523
  0.5117675561695110  0.9178411714978909  0.8053326894940611
