Li Mg Bi  S  O 
 1.0000000000000000
    11.1784999999999997    0.0000000000000000    0.0000000000000000
     0.0000000000000000    9.5746000000000002    0.0000000000000000
     0.0000000000000000    0.0000000000000000   11.1823999999999995
 Li  Mg  Bi  S   O  
   6   5  16  16  16
Direct
  0.4106704527565717  0.0343027595056636  0.6064125231892312
  0.3249756129781288  0.0572886849206785  0.3086797889684255
  0.6188649616118399  1.0628764524590926  0.3990166433202640
  0.8942868413892958  0.0017770012173758  0.5685129312098866
  0.5531688030922655  1.0084288185503003  0.1511072918727882
  0.8970427842755527  0.0427961544555625  0.1232475204171415
  0.1921716757854571  1.0607615616655128  0.0858664942378600
  0.3668386736827360 -0.0092489065833955  0.8966627841499236
  0.1395478159448537  1.0284445507929441  0.6434086567171780
  0.9054811845693749  0.0208956205726070  0.8733459672414881
  0.6388361029580363  1.0181236107219049  0.6602563719318782
 -0.0062859144932179  0.3232380736677202  0.0445286410328544
  0.2514322221226774  0.6760921830630607 -0.0004730058179134
  0.2374177858151630  0.4132004704858303  0.2490202425400820
  0.4820092590135806  0.7592574708779843  0.2930446341405056
  0.4593851425743378  0.2841188731897432  0.0643425637007272
  0.7472066354502920  0.7322796019916439  0.0022438030168216
  0.7584617884978495  0.3355292134265775  0.3000484777839491
  1.0097876458770150  0.7858205364279924  0.2306948710578617
  0.0143005925847595  0.3091585216939377  0.5294995999622655
  0.2322319480268016  0.7401103099364160  0.5091461848781529
  0.2390214781234445  0.2928398905384841  0.7869764793688347
  0.4838578842796945  0.7165015718009072  0.7613119537615664
  0.4995366038473353  0.3744216559719526  0.5503176954152832
  0.7438476466761405  0.6994772328634140  0.4986565570026378
  0.7479087405367495  0.3040054844369828  0.7918547217201050
  0.9602076041339804  0.7315748978363371  0.7435640216189291
  0.2194212989721405  0.3736419122336841  0.0121125169212574
 -0.0243126970490874  0.6449111112469910  0.0152486910184287
  0.4667220996060490  0.4113509616709502  0.3179620088547492
  0.2299690314207014  0.7167166065437338  0.2804492279978504
  0.7410627976038136  0.3267890936363837  0.0530790911151295
  0.5156611161284536  0.6677213803113876 -0.0113330674401789
  0.9978322491612128  0.3798926810276531  0.2807294198774389
  0.7345351155156128  0.6396055503053275  0.2527118074294241
  0.2325886358958283  0.3775937000050623  0.5706655139363735
 -0.0066977310130705  0.6762269710637416  0.5174894757938531
  0.5150068681287107  0.3040155480888012  0.8336255462342071
  0.1832087169643676  0.6911841814690008  0.7693800170929777
  0.7818697112739471  0.3401142775138888  0.5392426243064145
  0.4949329346656514  0.7120317600235380  0.5243422237831076
  0.9824219312738024  0.3629180679321003  0.7889653956793354
  0.7360840410382783  0.6210691030494319  0.7669088514371707
  0.4187716853809723  0.0915772400413038  0.0334426969102105
  0.2793498581622203  0.8780574463191202  0.0437702737694095
  0.2298951385107369  0.1856641388871626  0.2268278697628709
  0.0424696078931794  0.9904913561617510  0.1569758461916105
  1.0381825231967330  0.1270913566548821 -0.0389549836726221
  0.8149780815635064  0.9317421318453433  0.0058155808613806
  0.7174248971971247  0.1355545562559534  0.2661352665372839
  0.4838716726497820  0.9718620880442134  0.2998575834173794
  0.5406940287309230  0.1527643277306798  0.5596814541953613
  0.2669895712171906  0.9511198000171033  0.5382293926826790
  0.2499364655311035  0.0768382754805169  0.7813669988618598
 -0.0204948828010419  0.9426382828852133  0.7246859729355357
  1.0330160997469697  0.1016620794827182  0.5226935218955415
  0.7383204269166128  0.9137555677950284  0.5359341432966268
  0.7644744904151383  0.0844855054263985  0.7722125744470696
  0.4909137224966242  0.9349303546724410  0.7605604370385423
