Li Mg Bi  S  O 
 1.0000000000000000
    11.1784999999999997    0.0000000000000000    0.0000000000000000
     0.0000000000000000    9.5746000000000002    0.0000000000000000
     0.0000000000000000    0.0000000000000000   11.1823999999999995
 Li  Mg  Bi  S   O  
  10   3  16  16  16
Direct
  0.3575736110412694  0.0011318497348012  0.4406108350632943
  0.3824508242269102  0.0022183884100019  0.1973613425154281
  0.6254109467070268  0.9997379584990093  0.4402527970190750
  0.8908100281745592  0.0005291098345768  0.4375177223985537
  0.6251798204057337  1.0008922968492109  0.1729111532760635
  0.8684067682649755  0.0001555648421792  0.1930342063278555
  0.1252602076883426  1.0004152635176800  0.6845890775602508
  0.3776902227376833  0.0010908239910117  0.6860610689955123
  0.6257305779695919  1.0009052581184525  0.7017741278036210
  0.8733280187110090 -0.0010988846122897  0.6848147879471702
  0.1248816281975497  1.0021328523359847  0.1799050322213782
  0.3712081776602381 -0.0010413317252997  0.9401181114361395
  0.8782681737088307  0.0038390834400210  0.9385778946559898
 -0.0019845282636290  0.3106540457314067  0.0621946120235857
  0.2527751792551980  0.6926438375116567  0.0648783955666327
  0.2479818344076327  0.3038866249259566  0.3114045883261211
  0.5020223573040099  0.7057913025424726  0.3148291354929956
  0.4981101206269477  0.3005029188818935  0.0640569317946380
  0.7509517713349348  0.7008759746574255  0.0625832837365881
  0.7481594317564001  0.2946534217539518  0.3136456406197895
  1.0002811954544599  0.7010599395857517  0.3110419707876386
 -0.0012795333887514  0.2909226815307732  0.5632969287967414
  0.2494604147473410  0.7089986431484473  0.5646794349037078
  0.2529111525915810  0.3029531041519455  0.8100130073333784
  0.4971920255613511  0.6990648507921335  0.8120332145283495
  0.4999467875420243  0.2953565858805378  0.5618849047133097
  0.7494669634618012  0.7051259509861049  0.5623006752613262
  0.7514098228502023  0.3029181715594459  0.8107111176731251
  0.9967624841660304  0.6980154444940186  0.8111788784450383
  0.2475010573537643  0.3470747308678899  0.0625248090164376
 -0.0004947651188289  0.6527136228299054  0.0644891248934092
  0.4998862901837552  0.3447392381431419  0.3109024541141778
  0.2485579168156575  0.6640544162266311  0.3125725474031485
  0.7516616044196315  0.3363336727517676  0.0618478394293875
  0.4983605009071106  0.6626600954556850  0.0642304775729743
  0.9998017551125604  0.3370302629393393  0.3132405042585725
  0.7505241564547235  0.6567245240344856  0.3124041436904379
  0.2527850153377095  0.3350421853523063  0.5611759982777329
 -0.0012227352353556  0.6628564617720490  0.5640709436644767
  0.5011707631202668  0.3402296096163007  0.8151819756340044
  0.2482585835720368  0.6594043879002029  0.8178548466895775
  0.7496049632026546  0.3459590761500443  0.5622691344767913
  0.4994835341826720  0.6547667728018423  0.5637900756139661
  1.0012124777834666  0.3398651271580139  0.8137466670726993
  0.7481329066579379  0.6597199210675796  0.8159901277841419
  0.4798235427145527  0.0832415201197068  0.0678999519658920
  0.2592523508871584  0.9160764541536816  0.0728577684501583
  0.2522030602139874  0.0873551046019002  0.2894006754903078
 -0.0033510402768437  0.9174947909232729  0.2889912274676603
  0.9905231112218128  0.0873063385401127  0.0717156219529387
  0.7694275586057914  0.9180400702949824  0.0657700799955066
  0.7482993757649086  0.0773001776710918  0.3120784005296187
  0.5009615191363260  0.9229239815912672  0.3140765221978717
  0.5029397534073611  0.0785333941664878  0.5644542831894288
  0.2616471792668098  0.9216716147721846  0.5754582310311696
  0.2690421736560098  0.0867848871589691  0.8113462898786359
 -0.0189578390563681  0.9145180586114958  0.8113531027047356
  0.9881746320374433  0.0779954969407059  0.5739735139035762
  0.7477829525629749  0.9218129223458505  0.5636111538740611
  0.7681685340037450  0.0857718106412215  0.8088144589888433
  0.4815458168783301  0.9160234527707264  0.8112858722142117
