Li Mg Bi  S  O 
 1.0000000000000000
    11.1784999999999997    0.0000000000000000    0.0000000000000000
     0.0000000000000000    9.5746000000000002    0.0000000000000000
     0.0000000000000000    0.0000000000000000   11.1823999999999995
 Li  Mg  Bi  S   O  
   6   5  16  16  16
Direct
  0.2744122819152004 -0.0070526271185780  0.4381618175082044
  0.6271876419563345  0.9940565460727162  0.4377084050363950
  0.6402299349722130  0.9978725490754624  0.9282131977302500
  0.9273231832856054 -0.0262158152481572  0.9709357104582564
  0.5996053213043956  1.0102889742067884  0.6974178651140505
  0.8660920264972312 -0.0016477470496411  0.6818094718315832
  0.1304153851052864  0.9931269304258703  0.1835960103221570
  0.8934232993588678  0.0045234360658565  0.4204258588136047
  0.6404951224103379  1.0077157736648890  0.1787962287873501
  0.3696381439386905  0.0008260711439736  0.9424615033402814
  0.1272800271350319  1.0023522813069394  0.6955826720060695
  0.0038025720884882  0.2974699883197499  0.0592647943781882
  0.2521543491333024  0.6913866913864612  0.0625539107797905
  0.2521524274440400  0.3015158582575060  0.3054045189383446
  0.5085762064564493  0.6994623250116544  0.3103202744204603
  0.5054736658338893  0.3099835460581586  0.0576598296617273
  0.7505718970372380  0.6959376153947863  0.0581011620805624
  0.7527471694896845  0.3118953739772816  0.3079018657568267
  1.0053367683597758  0.6915532652776633  0.3119815871986331
  0.0006127487471619  0.3096369005112639  0.5606484997620080
  0.2521962883409335  0.6892589004454923  0.5663863503552282
  0.2538854065388066  0.3031927896986562  0.8093490882377348
  0.5009425661582640  0.6979603964222892  0.8124581307013963
  0.5038700323955280  0.2896192056545394  0.5556508808826794
  0.7517510010646319  0.6957607455165700  0.5521272344481907
  0.7470829763390233  0.2948745894113960  0.8024248327853025
  0.9970151962769452  0.6970051669697955  0.8050118013778671
  0.2514607900037481  0.3442485042231193  0.0562184611830994
  0.0017664230944966  0.6759669791434594  0.0565249143769917
  0.5020496242956136  0.3362925386856840  0.3056891184572685
  0.2502309513221955  0.6635542999789026  0.3119935928102884
  0.7529402008696061  0.3340087811098110  0.0575378545190188
  0.5014877725326882  0.6463348879633599  0.0606757667621301
  0.9984117372564754  0.3421389838228699  0.3088185343032498
  0.7547887753283609  0.6416337141250569  0.3102797731237519
  0.2499421834821451  0.3166760590644782  0.5593360095827780
  0.0021776349159351  0.6398715469507977  0.5608036141154514
  0.4995838641333555  0.3470742378688459  0.8104615581407043
  0.2491549469555876  0.6562568382438697  0.8124536506021265
  0.7501218383206401  0.3540253837956496  0.5570176981325944
  0.5016539945136653  0.6747190435645504  0.5615923932116434
  1.0016366626693094  0.3368443930730117  0.8077734769555659
  0.7504061372594859  0.6552140145764753  0.8107996529999263
  0.5180127852628150  0.0880936151566601  0.0461441596094871
  0.2551435300737421  0.9104322241297792  0.0619569029512827
  0.2345344394849559  0.0883175711759581  0.3004267804299453
  0.0090443734834738  0.9106552444824323  0.3090043825586708
  1.0162899111988779  0.0848824563914651  0.0731109921232199
  0.7410424928731301  0.9138442830490832  0.0539447543914892
  0.7521450039712526  0.0896132035687218  0.3161727669884046
  0.5472450719516432  0.9068849660693761  0.2998202429340838
  0.5301724040676283  0.0815505099496480  0.5570699454067111
  0.2224472574167712  0.9002130088631135  0.5745901303013717
  0.2519524709316844  0.0848040466757905  0.8162520298606444
 -0.0066584998274022  0.9151814764232022  0.7930153183893739
  0.9902975410108038  0.0879432491477597  0.5691994464243966
  0.7758875958826643  0.9119592420486617  0.5343035514576122
  0.7371060121487834  0.0803605155380504  0.7914218607630410
  0.5020917769840249  0.9141067717283157  0.8367839786363775
