Li Mg Bi  S  O 
 1.0000000000000000
    11.1784999999999997    0.0000000000000000    0.0000000000000000
     0.0000000000000000    9.5746000000000002    0.0000000000000000
     0.0000000000000000    0.0000000000000000   11.1823999999999995
 Li  Mg  Bi  S   O  
   6   5  16  16  16
Direct
  0.3769120982672623  0.0005204705028989  0.3038306968617048
  0.8721036227988554 -0.0115779550723562  0.1787042429855391
  0.2953867328319884  0.0159156597318644  0.9608281784457886
  0.3829349482456387 -0.0010371831017049  0.6870919690272039
  0.6074975615861558  1.0097666120523545  0.9145497817197780
  0.8762545477139476  0.0132784190962381  0.8100490497093806
  0.1188818317371345  0.9911137623740044  0.2076104200085912
  0.8832134677046424 -0.0067711735937208  0.4413608124861341
  0.6216787950340797  1.0038950185723359  0.1830094856061037
  0.1266826667844933  1.0122565436150031  0.6742755760880835
  0.6401995506974002  1.0014523361113141  0.6717228471612691
  0.0038680569231594  0.2934521036342119  0.0621801920190357
  0.2415195840984048  0.6944772842046515  0.0666235224951292
  0.2464172679883587  0.3077502665067432  0.3207465739902691
  0.4959448268075632  0.6803916420753255  0.3056441692224516
  0.5014825629033181  0.3037849935827653  0.0613616380982576
  0.7452514053664000  0.6890407995573093  0.0688394631480485
  0.7548510752357125  0.2952331652725025  0.3160601940373579
  0.9957964078286421  0.6753819738312344  0.3144208006645421
 -0.0002181476300747  0.3112293780289230  0.5657976333289488
  0.2490924888698175  0.6949970811137599  0.5764812451619792
  0.2576214478407339  0.3075132145956208  0.8143126931929162
  0.5046487564226607  0.6887368300461745  0.8156915572984028
  0.5067094679620613  0.3089784440057841  0.5680686523645420
  0.7454844636533847  0.6910239506055665  0.5611217778122259
  0.7485196637430268  0.3158718144102063  0.8176887527221797
  0.9980363749806300  0.6997958034983991  0.8114050993915378
  0.2558238499982146  0.3333804062350831  0.0670508448146566
 -0.0028109441719376  0.6456816185247515  0.0668240260087752
  0.4924283020577384  0.2385472273040876  0.3167058354082228
  0.2420481625854299  0.6607195690924215  0.3136050117565823
  0.7437360824137104  0.3468480938282623  0.0664324985470294
  0.4939355922361735  0.6512670538806923  0.0582941227087255
  0.9981522885615319  0.3538397997242156  0.3196879213712961
  0.7435277516173852  0.6332327338475422  0.3158836039203154
  0.2450402242072561  0.3379369832702301  0.5693891299278979
 -0.0074996100328016  0.6417370769007231  0.5676407675100100
  0.5018706947326850  0.3667444024816803  0.8097053949379259
  0.2410795067444702  0.6399987230807118  0.8151429571467098
  0.7558997872821431  0.3375123710609521  0.5683554225731036
  0.4951835899442537  0.6534093623487657  0.5470334799776744
  0.9856272033754454  0.2572504381818394  0.8227556018610900
  0.7524213803483485  0.6595473079211305  0.8182247395688941
  0.5253209719473483  0.0914195464219336  0.0434639226185357
  0.2309337631962488  0.9074795818842867  0.0850277629719339
  0.2332105034291647  0.0971078584071997  0.3032889164220151
 -0.0157290371915923  0.8987446590111176  0.3104338194766973
  1.0003913317998516  0.0880449805017041  0.1090223330466715
  0.7402076983405845  0.9049073952087591  0.0825003608620022
  0.7710501238440565  0.0752521207480289  0.3057822733486704
  0.5087501953977839  0.8904119040199157  0.2771006443019703
  0.5063963481273828  0.1022799671995665  0.6070254833798806
  0.2547427190679102  0.9053892189988110  0.5988294006488399
  0.2588087078505719  0.0894538817973680  0.8013701630602806
  0.0101720423370494  0.9073136874562441  0.7756585379801118
  1.0027277561718879  0.0926870461369716  0.5500770398820809
  0.7608788524990369  0.9107143790740598  0.5612571887503719
  0.7249100347744089  0.0984126610833706  0.8089019707223832
  0.5255283200573266  0.9006562095559796  0.7857519052452692
