Li Mg Bi  S  O 
 1.0000000000000000
    11.1784999999999997    0.0000000000000000    0.0000000000000000
     0.0000000000000000    9.5746000000000002    0.0000000000000000
     0.0000000000000000    0.0000000000000000   11.1823999999999995
 Li  Mg  Bi  S   O  
  10   3  16  16  16
Direct
  0.3606373227579561 -0.0029819318934529  0.4411412965753250
  0.1087706115983097  1.0098050889156547  0.2116925902035295
  0.6209953223256932  0.9978736904080134  0.4220705002009098
  0.8588261289059519 -0.0009372118686373  0.1863744210082664
  0.1247066754030156  0.9967157018739705  0.9497854645096261
  0.3718088100631408  0.0005975927048314  0.9270546349388912
  0.3840730708295861 -0.0041719734141926  0.6856840979059983
  0.6266958406127875  1.0033677563809247  0.9494339758545720
  0.8717290128443145 -0.0064404080917487  0.9204479736074377
  0.6450806897150966  1.0015900411553997  0.6795196689934130
  0.3818207722771364 -0.0014756750991565  0.1823235722121315
  0.8842250524539618 -0.0011536255888814  0.4491771062172202
  0.1185273953215517  0.9983556291018514  0.6833453144072139
 -0.0007308884434074  0.2965087594671560  0.0648396390731299
  0.2512709828883363  0.6951879096854391  0.0613751218594043
  0.2523026256479691  0.3035639149212294  0.3100294520714471
  0.4965707754082293  0.6983307558029200  0.3126825306775912
  0.4982924474146569  0.3022482041911592  0.0602277215547198
  0.7535961587455555  0.7065319466583058  0.0595763239633602
  0.7515869336182122  0.3045661228047847  0.3156384056593931
  0.9968151290044731  0.6982904575961028  0.3119490191953946
 -0.0011621915442353  0.3047288972998963  0.5641201697742282
  0.2531384895281562  0.6979666084277435  0.5655067689283729
  0.2472600372980326  0.3027484852254273  0.8113339273913167
  0.5013361853368826  0.7048681918159908  0.8113846753362748
  0.4993291295920557  0.2935662145197525  0.5629554200393249
  0.7462241447770346  0.6974754438332609  0.5586674678500355
  0.7451605265272880  0.2917347852694966  0.8150999073073921
  1.0015953459837845  0.6977287637485825  0.8138665246467368
  0.2492256072432855  0.3524865083519915  0.0639793031380584
  0.0011058014327265  0.6525952406562849  0.0630533027673936
  0.5002882281188096  0.3392021929580491  0.3120697450048657
  0.2502210404285551  0.6581687256823321  0.3119472894691285
  0.7509109758500513  0.3364205551341587  0.0619816285977845
  0.5007542348589411  0.6635367584853574  0.0641279880224509
  0.9994152595555351  0.3454393865263363  0.3168607676963292
  0.7506336081830853  0.6507747354283352  0.3147283486744771
  0.2478859393422082  0.3414443577338500  0.5629204442198292
 -0.0000148092662241  0.6862271626019646  0.5627012227975593
  0.4969280311366154  0.3474141867332352  0.8129681860091370
  0.2481927741253709  0.6465634937727887  0.8104670763232766
  0.7494973632374484  0.3429204009773437  0.5665353648205936
  0.4997974752328557  0.6527383185218684  0.5623538843043451
  1.0017723522408213  0.3383945913870155  0.8122359778389474
  0.7506694267350095  0.6616682804313503  0.8115608650984975
  0.4800932185348523  0.0853302119050417  0.0519720996951978
  0.2615329417008313  0.9160223698792457  0.0624022381527444
  0.2627052065523929  0.0864893499659461  0.2930066932787682
 -0.0215862390414399  0.9159609081787358  0.3092791011523944
  1.0073571957808298  0.0801363626352334  0.0694153281664392
  0.7651253613331864  0.9192022495687091  0.0486228741865332
  0.7681798118818864  0.0891158455503084  0.3333101126437957
  0.4782217440824221  0.9159153127802001  0.3178130186581677
  0.4995165121723052  0.0767590544007755  0.5606587943382899
  0.2557720182298703  0.9152230035265276  0.5844366623925419
  0.2414575094576748  0.0813446231267503  0.8061219262200298
  0.0224799774869815  0.9143763405821211  0.8210526785156061
  1.0012435093031395  0.0862945109179411  0.5660767211592813
  0.7423914153819418  0.9148875974572693  0.5396333525170797
  0.7348404640091126  0.0784171389030328  0.8215423785925063
  0.4940140834710987  0.9212976764555640  0.8124740321790689
