Li Mg Bi  S  O 
 1.0000000000000000
    11.1784999999999997    0.0000000000000000    0.0000000000000000
     0.0000000000000000    9.5746000000000002    0.0000000000000000
     0.0000000000000000    0.0000000000000000   11.1823999999999995
 Li  Mg  Bi  S   O  
   4   6  16  16  16
Direct
  0.2743508822744448  0.0113533100320642  0.4578720402417640
 -0.0097443049339190  0.9830620298144231  0.1774071240824733
  0.3779629474626263 -0.0181486833638937  0.1838148050675194
  0.6170867663210226  1.0025963427451747  0.4267605355677142
  0.8732191721344675  0.0011792762753453  0.4490306399528987
  0.6437290581147286  1.0040072322386520  0.1640082735252550
  0.3939044901834273  0.0009644176599294  0.9173081862257735
  0.1100587205136649  1.0000492105142684  0.6981841036304253
  0.8635789277142226 -0.0066571763044070  0.9190926352520489
  0.6314499491970185  0.9965064514226023  0.6914987352694677
 -0.0009090293531778  0.2967029656980396  0.0519666277429617
  0.2553070050787384  0.6958740341228774  0.0603068259413402
  0.2510738559028682  0.2594271544531258  0.2996204918772453
  0.4997157003831004  0.6998533732032816  0.3022330437221235
  0.5023670354879322  0.3108642399696736  0.0596361800516338
  0.7526394740475980  0.6875762181277714  0.0605478488678193
  0.7525295626846191  0.3090447422976900  0.3077193679002456
  0.9991684363668824  0.6873977450639023  0.3169393000325703
  0.0047907706709087  0.3080133610452434  0.5575761595564881
  0.2421668224044434  0.6887794462651837  0.5646520170340125
  0.2547873592856464  0.2953209321875325  0.8107981027860839
  0.4958414324455557  0.6883262058965156  0.8127601683760149
  0.5050772469988410  0.3053929306148725  0.5544330597880384
  0.7440676770520334  0.6906674637031069  0.5585224094614923
  0.7516642652641833  0.3062555363160153  0.8035222520078782
  0.9998099623358175  0.6873760814859828  0.8140096776217610
  0.2536151426336276  0.3319589761526036  0.0581387003337573
 -0.0041906832642250  0.6682445858175434  0.0657821919031225
  0.5046760517765143  0.3398272194584719  0.3077325573022434
  0.2455059971741922  0.6599117717849243  0.3188605300545216
  0.7535028835540040  0.3451236300820981  0.0545375967605510
  0.5002457019579403  0.6331591163805870  0.0653016426389524
  1.0065647033511482  0.3173346209641275  0.3079593856388694
  0.7460312194762333  0.6392656574466580  0.3105500800655815
  0.2646131099948901  0.2793217364745236  0.5598021330894314
 -0.0077702592239192  0.6445602960382925  0.5673448377473655
  0.5038676444288290  0.3355954896561947  0.8103299885501691
  0.2453646928975497  0.6456413640948828  0.8124430208714217
  0.7583414809637232  0.3560069548794829  0.5555848870455508
  0.4941525393083492  0.6645671167343856  0.5673374952303518
  1.0090813728442312  0.3396160933935953  0.8044219380726123
  0.7446950544673431  0.6509821095375019  0.8123029981884154
  0.5037739933370141  0.0892077458782490  0.0611420942432765
  0.3078172568024620  0.8975468076884016  0.0422033595700234
  0.2662586470617664  0.0516406494322345  0.2975643606113245
 -0.0341106904966545  0.8979125826138291  0.3262810744532043
  0.9697968805223058  0.0858002928181339  0.0389604123575806
  0.7542957805018102  0.9077230097993941  0.0505083142295253
  0.7453409498040898  0.0866350556298427  0.3148538017798058
  0.5302169170896658  0.9117493859232424  0.2789703906794143
  0.5443539498000166  0.0968616387243789  0.5634648923326492
  0.2147118771643611  0.8987119095834094  0.5813813207493702
  0.2528950633310372  0.0771610173223407  0.8130867662923243
 -0.0114602988299623  0.9060413467421452  0.8077048445068060
  0.9931413669780306  0.0899510617894206  0.5661669357657725
  0.7370340698939030  0.9138208137037707  0.5485832857874438
  0.7504134648554732  0.0869014292103053  0.8034984309477219
  0.5127742132233881  0.9069029707767305  0.8079578762296479
