Li4 Mg6 Bi16 S16 O16                    
   1.00000000000000     
    11.2745063725059325   -0.1488586315481999    0.0153094294359614
    -0.1223082514632829    9.6676294949897716    0.0694161858929404
     0.0126405596605699    0.0919452316950415   11.2479146368692700
   Li   Mg   Bi   S    O 
     4     6    16    16    16
Direct
  0.4283027503107504 -0.0224349305370057  0.1637881532546270
  0.4783756823102445  0.0136639011205433  0.3930201547210228
  0.2541790881206350  0.0300667487096697  0.9509140932158248
  0.4897772313912226 -0.0225108831108080  0.6741558779954477
  0.8788635453856652  0.0045854728635758  0.4428208151780615
  0.8494058478993615  0.0018262903609275  0.1885515280033117
  0.1069921454821484  0.0135171802899322  0.6839309501822840
  0.6310855164151458  0.9970209857105650  0.9449389411910183
  0.8954928273204208  0.0013931197391813  0.9376320064744007
  0.8434528309162110  0.0065458954825811  0.6938459090497449
  0.0016060735003627  0.3169179076024330  0.0729950824691600
  0.2593967979946499  0.6998411325813457  0.0675704133269450
  0.2612178523950168  0.2251273420558170  0.3118865816695637
  0.4991586536755611  0.6913769724030002  0.3115266699666737
  0.5003365117526991  0.3007906441378718  0.0639160243901784
  0.7475881354245140  0.6808746392855014  0.0654955623197238
  0.7477856863725715  0.3138683593342830  0.3190007062628245
 -0.0014097819925552  0.6977860269154297  0.3097800001879744
 -0.0052529658052325  0.3290060245579429  0.5637535610787068
  0.2394628134410105  0.7110125762299718  0.5592219245209028
  0.2416193087573270  0.3153499658383093  0.8077317193297648
  0.4985409369658768  0.6917762322580208  0.8162714585006312
  0.4915062473926060  0.3046605008227277  0.5589293162174808
  0.7401442005822437  0.6885867838041539  0.5592438118905866
  0.7441293310873744  0.3212351230449466  0.8193792294611677
 -0.0011070132411656  0.6877698290631985  0.8098473587418012
  0.2397521461219896  0.2833040723387745  0.0676561831252085
 -0.0084351377290382  0.6732985500689211  0.0613931676776612
  0.4791664973884939  0.3521776548927160  0.3174316683621607
  0.2408750284609681  0.6685533933322609  0.3136030466638574
  0.7443945693222925  0.3656078377195328  0.0692661802707618
  0.4971786936272349  0.6317268474235047  0.0613775954346465
 -0.0146084939949220  0.3608292351678566  0.3191553591554739
  0.7458219396525957  0.6381184516621109  0.3179332303908793
  0.2361952033310812  0.3393646290751930  0.5679401100304150
 -0.0119818411241017  0.6400854823622594  0.5653127697080039
  0.4915485210569787  0.3299454383123744  0.8169708192235563
  0.2376672335456980  0.6662192614810797  0.8130601322542087
  0.7413826924472477  0.3427469626697017  0.5732471615779089
  0.4943160852586849  0.7244862908968606  0.5675401362878104
  0.9875028667444129  0.3663844835565685  0.8205200131872272
  0.7420694538376763  0.6380178213988748  0.8174108008091524
  0.5322579946940117  0.0938340491530029  0.0556838591022307
  0.2997122087732094  0.9015507792063431  0.0573419567639744
  0.3375958620572671  0.0447309946100471  0.3013155929568324
 -0.0500892429727894  0.9052565114084763  0.3095562983834177
  0.9539825258528930  0.1063357837040044  0.0714350869915540
  0.7675903252526084  0.9094651215733458  0.0432045546934806
  0.7837976914141106  0.1036244944303056  0.3218517217354747
  0.5354809387650353  0.8911809020616603  0.2776786310221258
  0.4958244834129079  0.0979718183963318  0.5474010004255314
  0.2002207779701062  0.9109942202171634  0.5757660620246554
  0.2042614976172776  0.1048374412917626  0.8053233945809328
 -0.0270507357401516  0.9180414076997150  0.7948611813536117
  0.9679644816458191  0.0994622963070285  0.5847130070291764
  0.7822917286405132  0.9000859016077122  0.5626993304522308
  0.7666601246440611  0.0908991231595941  0.8361940128314332
  0.5360036261711617  0.9015889022507803  0.8238680858946119
 
  0.00000000E+00  0.00000000E+00  0.00000000E+00
  0.00000000E+00  0.00000000E+00  0.00000000E+00
  0.00000000E+00  0.00000000E+00  0.00000000E+00
  0.00000000E+00  0.00000000E+00  0.00000000E+00
  0.00000000E+00  0.00000000E+00  0.00000000E+00
  0.00000000E+00  0.00000000E+00  0.00000000E+00
  0.00000000E+00  0.00000000E+00  0.00000000E+00
  0.00000000E+00  0.00000000E+00  0.00000000E+00
  0.00000000E+00  0.00000000E+00  0.00000000E+00
  0.00000000E+00  0.00000000E+00  0.00000000E+00
  0.00000000E+00  0.00000000E+00  0.00000000E+00
  0.00000000E+00  0.00000000E+00  0.00000000E+00
  0.00000000E+00  0.00000000E+00  0.00000000E+00
  0.00000000E+00  0.00000000E+00  0.00000000E+00
  0.00000000E+00  0.00000000E+00  0.00000000E+00
  0.00000000E+00  0.00000000E+00  0.00000000E+00
  0.00000000E+00  0.00000000E+00  0.00000000E+00
  0.00000000E+00  0.00000000E+00  0.00000000E+00
  0.00000000E+00  0.00000000E+00  0.00000000E+00
  0.00000000E+00  0.00000000E+00  0.00000000E+00
  0.00000000E+00  0.00000000E+00  0.00000000E+00
  0.00000000E+00  0.00000000E+00  0.00000000E+00
  0.00000000E+00  0.00000000E+00  0.00000000E+00
  0.00000000E+00  0.00000000E+00  0.00000000E+00
  0.00000000E+00  0.00000000E+00  0.00000000E+00
  0.00000000E+00  0.00000000E+00  0.00000000E+00
  0.00000000E+00  0.00000000E+00  0.00000000E+00
  0.00000000E+00  0.00000000E+00  0.00000000E+00
  0.00000000E+00  0.00000000E+00  0.00000000E+00
  0.00000000E+00  0.00000000E+00  0.00000000E+00
  0.00000000E+00  0.00000000E+00  0.00000000E+00
  0.00000000E+00  0.00000000E+00  0.00000000E+00
  0.00000000E+00  0.00000000E+00  0.00000000E+00
  0.00000000E+00  0.00000000E+00  0.00000000E+00
  0.00000000E+00  0.00000000E+00  0.00000000E+00
  0.00000000E+00  0.00000000E+00  0.00000000E+00
  0.00000000E+00  0.00000000E+00  0.00000000E+00
  0.00000000E+00  0.00000000E+00  0.00000000E+00
  0.00000000E+00  0.00000000E+00  0.00000000E+00
  0.00000000E+00  0.00000000E+00  0.00000000E+00
  0.00000000E+00  0.00000000E+00  0.00000000E+00
  0.00000000E+00  0.00000000E+00  0.00000000E+00
  0.00000000E+00  0.00000000E+00  0.00000000E+00
  0.00000000E+00  0.00000000E+00  0.00000000E+00
  0.00000000E+00  0.00000000E+00  0.00000000E+00
  0.00000000E+00  0.00000000E+00  0.00000000E+00
  0.00000000E+00  0.00000000E+00  0.00000000E+00
  0.00000000E+00  0.00000000E+00  0.00000000E+00
  0.00000000E+00  0.00000000E+00  0.00000000E+00
  0.00000000E+00  0.00000000E+00  0.00000000E+00
  0.00000000E+00  0.00000000E+00  0.00000000E+00
  0.00000000E+00  0.00000000E+00  0.00000000E+00
  0.00000000E+00  0.00000000E+00  0.00000000E+00
  0.00000000E+00  0.00000000E+00  0.00000000E+00
  0.00000000E+00  0.00000000E+00  0.00000000E+00
  0.00000000E+00  0.00000000E+00  0.00000000E+00
  0.00000000E+00  0.00000000E+00  0.00000000E+00
  0.00000000E+00  0.00000000E+00  0.00000000E+00
