Li Mg Bi  S  O 
 1.0000000000000000
    11.1784999999999997    0.0000000000000000    0.0000000000000000
     0.0000000000000000    9.5746000000000002    0.0000000000000000
     0.0000000000000000    0.0000000000000000   11.1823999999999995
 Li  Mg  Bi  S   O  
   8   4  16  16  16
Direct
  0.3838256080250678  0.0012547318938758  0.4280744172124224
  0.1049333308431644  1.0139569991922108  0.2388566509683980
  0.3727882070774782  0.0004208380129656  0.1813720047931318
  0.8793480709034365 -0.0072330180274010  0.1768834605657142
  0.1342826525728484  0.9981423536191153  0.9331402456700082
  0.4219950080089473 -0.0150038935419475  0.9456692705768723
  0.3684938629798447 -0.0035737975920489  0.6819162424761605
  0.8697087215642736 -0.0110244978705082  0.8829415311651919
  0.8631722146347672 -0.0030413252750450  0.4438609911853622
  0.6283876844727579  0.9989187490554646  0.1967891188928090
  0.1090609557436317  0.9946214233979500  0.6705502965235857
  0.6291566185158707  0.9943248571132547  0.6777465410628372
  0.0039344758004264  0.2902640327989632  0.0627540956492940
  0.2531652708667790  0.7087646682337994  0.0544251958802276
  0.2536088222639389  0.2948471310934984  0.3060667043367348
  0.4944660618962640  0.6942627646753279  0.3095855676907136
  0.5004970974676636  0.3007162794602727  0.0626601877120954
  0.7467277480530320  0.6900922570563844  0.0672139214299324
  0.7508320494325359  0.3084388305194084  0.3099162512518869
  0.9946020392029569  0.6932839726066159  0.3092803508003666
 -0.0007864482755045  0.3032335033457279  0.5565761736547846
  0.2457964195929684  0.6937358193197215  0.5598452313194698
  0.2431436608056103  0.3025739137699250  0.8056126648234457
  0.4975664753817960  0.6948912654850489  0.8052110726054540
  0.4980543499085845  0.2991111269379861  0.5636013462408828
  0.7463408322470815  0.6870108850060191  0.5621347789008225
  0.7469556396700475  0.2965166031405180  0.8119823226116516
  1.0001162435338249  0.6900461933542621  0.8148350522108954
  0.2522476723296083  0.3436534006962376  0.0594241963859018
 -0.0003106084082410  0.6550137969634587  0.0625159749507931
  0.4985896316915470  0.3425610032256451  0.3126385828640797
  0.2474062471488769  0.6671916260950216  0.3113922139965161
  0.7501835732204850  0.3365093723395401  0.0637138098743830
  0.4958918961190406  0.6516058487931332  0.0572128673683246
  1.0006773436884677  0.3405457910245233  0.3120952222670010
  0.7460355867938949  0.6390986643431557  0.3098143083260769
  0.2482336022270245  0.3428780550097824  0.5593295063393027
 -0.0086561459699531  0.6616581496707155  0.5599019899476994
  0.5003490083684816  0.3399692348480540  0.8117906271719589
  0.2444958583861141  0.6425411480706621  0.8056170656033284
  0.7508769625035613  0.3414907822856614  0.5612894870956797
  0.4986286175371962  0.6495251594150814  0.5616311469547890
  0.9982992542524879  0.3424973136039019  0.8115685459091074
  0.7483924444355868  0.6824699569355087  0.8145000296690684
  0.5046567171082980  0.0838582794141272  0.0829032276409603
  0.2740722091646593  0.9208819449514902  0.0370931478992643
  0.2623233505125707  0.0807865899365477  0.3006465049406879
 -0.0294070362046946  0.9106287787019629  0.3138501316111895
  1.0109292999730914  0.0756438827373741  0.0715089454570670
  0.7488376399081152  0.9029267990442472  0.0946342061204131
  0.7602658178484616  0.0855164499309957  0.3047139436864593
  0.4946825315706657  0.9110111891421463  0.2929968014360473
  0.4952326534853810  0.0819495645783863  0.5755203846776238
  0.2477743617205364  0.9091499526033898  0.5782642321858555
  0.2262582485260114  0.0858316068611462  0.7875766631391629
  0.0182938447657961  0.9076094084143365  0.8119070712801472
  0.9902109052609459  0.0839373492710283  0.5557721640765526
  0.7422173100390322  0.9064692391388715  0.5548596372830145
  0.7439970804478808  0.0835743720963231  0.7942459005492147
  0.4948487774716381  0.9125065663712675  0.7883675250865135
