Li10 Mg3 Bi16 S16 O16                   
   1.00000000000000     
    11.1974715892616139    0.0575563559788001   -0.0030825079302389
     0.0476778234684225    9.5242104649738497    0.0008880883643991
    -0.0027690772916446    0.0026981118914826   11.1979112158220353
   Li   Mg   Bi   S    O 
    10     3    16    16    16
Direct
  0.1428263170119406 -0.0201979199148706  0.2205872412413310
  0.3928986969723213  0.0072114381688849  0.2089979438444075
  0.9019452156122952  0.0093342043575867  0.4188616741793809
  0.6312260386299725 -0.0010440195452480  0.1810281845349919
  0.8770116937263520  0.0009514918803960  0.1869409575096152
  0.1267535142837155  0.0000578972734552  0.9365286909309533
  0.3609623726281795  0.0309915013542337  0.5699488104938512
  0.6228669981828564  0.0021311563991704  0.9372011561474474
  0.6297590682641511  0.0049122544702016  0.6912913551149911
  0.8948352440777662 -0.0222484386503631  0.6739099160757761
  0.6307848100479624  0.0011718531253456  0.4371202326905084
  0.3762993080577699 -0.0020903446641105  0.9458217518591311
  0.8671365560723894  0.0012360538659038  0.9386492630041394
 -0.0019622052058572  0.3055596995772699  0.0626210825960616
  0.2487982870954854  0.6874380452167188  0.0631040132690516
  0.2504252923089612  0.3010000742323849  0.3137393342655413
  0.4999605835779178  0.6994386999859962  0.3153429872374591
  0.4951383756316590  0.3081111302310646  0.0655444453308850
  0.7494923083129252  0.6923689497323773  0.0643050773471457
  0.7521227252054653  0.3093715666517104  0.3171688015833135
 -0.0004579902735287  0.7002908859764932  0.3131674555276464
  0.0010777806174618  0.2921844047265048  0.5634683426485388
  0.2434356643448618  0.6977329184654050  0.5630657643371134
  0.2480900446357509  0.3073990185629514  0.8163394666075959
  0.4958021998239417  0.6977341961977226  0.8153640809258837
  0.5021111463899656  0.3138676796362184  0.5637290582908953
  0.7452728493843006  0.6874374929345924  0.5646388269394321
  0.7474561721716866  0.3087040769678984  0.8152407690743745
 -0.0019472193922783  0.6914426052721458  0.8132653112478945
  0.2531801852019129  0.3603440981471342  0.0658420158961792
 -0.0056479069850898  0.6477333139462127  0.0633941208124127
  0.5027608208464144  0.3491616220114207  0.3152217824905315
  0.2472777841716634  0.6774432397025677  0.3095386314429666
  0.7514472554844435  0.3494887188096207  0.0647000717850772
  0.4982773567194123  0.6490722523581988  0.0633657732646258
  0.9989384331414043  0.3396612607433309  0.3138769715705580
  0.7467595277695601  0.6495002685220225  0.3140599848012572
  0.2579126079086313  0.2736301110762875  0.5672014917405965
 -0.0087404425977405  0.6719302997068606  0.5647200882185904
  0.4999516134680329  0.3457356368696131  0.8172064779086622
  0.2486703211447098  0.6578009486645239  0.8157902837877642
  0.7505607845674050  0.3554265319658479  0.5649001548216293
  0.4977123779118670  0.6572593998451922  0.5620302604220243
  0.9966720137786315  0.3425151389956005  0.8158710893342507
  0.7467440604110538  0.6494761096087076  0.8169192245724366
  0.4967232160436277  0.0827776266113378  0.0631186203758150
  0.2559050624540133  0.9085873323722460  0.0560369831984423
  0.2616815342534156  0.0949919485452267  0.2780282645582000
 -0.0109637554693942  0.9144778238458730  0.2914020078314062
  0.9823935994162746  0.0857041645786012  0.0518924787785152
  0.7517198872183717  0.9188499300946670  0.0591926015793774
  0.7487191265759974  0.0846199599278481  0.3175469615989611
  0.5284934347465960  0.9174620092026152  0.3062184219339137
  0.5278287552557180  0.0938050292993885  0.5604826922341896
  0.2488657464987780  0.9028893883912694  0.5701355157400640
  0.2524242563073320  0.0993376941880788  0.8594545641098854
 -0.0225830535135387  0.9086670807070780  0.8277059210306033
  0.9581801404891341  0.0895610675251179  0.5575942371848521
  0.7340130238141844  0.9090804798621123  0.5639915909205424
  0.7446488534976092  0.0852143183680659  0.8266251773206744
  0.5039615312731771  0.9155266230192647  0.8384135438796718
 
  0.00000000E+00  0.00000000E+00  0.00000000E+00
  0.00000000E+00  0.00000000E+00  0.00000000E+00
  0.00000000E+00  0.00000000E+00  0.00000000E+00
  0.00000000E+00  0.00000000E+00  0.00000000E+00
  0.00000000E+00  0.00000000E+00  0.00000000E+00
  0.00000000E+00  0.00000000E+00  0.00000000E+00
  0.00000000E+00  0.00000000E+00  0.00000000E+00
  0.00000000E+00  0.00000000E+00  0.00000000E+00
  0.00000000E+00  0.00000000E+00  0.00000000E+00
  0.00000000E+00  0.00000000E+00  0.00000000E+00
  0.00000000E+00  0.00000000E+00  0.00000000E+00
  0.00000000E+00  0.00000000E+00  0.00000000E+00
  0.00000000E+00  0.00000000E+00  0.00000000E+00
  0.00000000E+00  0.00000000E+00  0.00000000E+00
  0.00000000E+00  0.00000000E+00  0.00000000E+00
  0.00000000E+00  0.00000000E+00  0.00000000E+00
  0.00000000E+00  0.00000000E+00  0.00000000E+00
  0.00000000E+00  0.00000000E+00  0.00000000E+00
  0.00000000E+00  0.00000000E+00  0.00000000E+00
  0.00000000E+00  0.00000000E+00  0.00000000E+00
  0.00000000E+00  0.00000000E+00  0.00000000E+00
  0.00000000E+00  0.00000000E+00  0.00000000E+00
  0.00000000E+00  0.00000000E+00  0.00000000E+00
  0.00000000E+00  0.00000000E+00  0.00000000E+00
  0.00000000E+00  0.00000000E+00  0.00000000E+00
  0.00000000E+00  0.00000000E+00  0.00000000E+00
  0.00000000E+00  0.00000000E+00  0.00000000E+00
  0.00000000E+00  0.00000000E+00  0.00000000E+00
  0.00000000E+00  0.00000000E+00  0.00000000E+00
  0.00000000E+00  0.00000000E+00  0.00000000E+00
  0.00000000E+00  0.00000000E+00  0.00000000E+00
  0.00000000E+00  0.00000000E+00  0.00000000E+00
  0.00000000E+00  0.00000000E+00  0.00000000E+00
  0.00000000E+00  0.00000000E+00  0.00000000E+00
  0.00000000E+00  0.00000000E+00  0.00000000E+00
  0.00000000E+00  0.00000000E+00  0.00000000E+00
  0.00000000E+00  0.00000000E+00  0.00000000E+00
  0.00000000E+00  0.00000000E+00  0.00000000E+00
  0.00000000E+00  0.00000000E+00  0.00000000E+00
  0.00000000E+00  0.00000000E+00  0.00000000E+00
  0.00000000E+00  0.00000000E+00  0.00000000E+00
  0.00000000E+00  0.00000000E+00  0.00000000E+00
  0.00000000E+00  0.00000000E+00  0.00000000E+00
  0.00000000E+00  0.00000000E+00  0.00000000E+00
  0.00000000E+00  0.00000000E+00  0.00000000E+00
  0.00000000E+00  0.00000000E+00  0.00000000E+00
  0.00000000E+00  0.00000000E+00  0.00000000E+00
  0.00000000E+00  0.00000000E+00  0.00000000E+00
  0.00000000E+00  0.00000000E+00  0.00000000E+00
  0.00000000E+00  0.00000000E+00  0.00000000E+00
  0.00000000E+00  0.00000000E+00  0.00000000E+00
  0.00000000E+00  0.00000000E+00  0.00000000E+00
  0.00000000E+00  0.00000000E+00  0.00000000E+00
  0.00000000E+00  0.00000000E+00  0.00000000E+00
  0.00000000E+00  0.00000000E+00  0.00000000E+00
  0.00000000E+00  0.00000000E+00  0.00000000E+00
  0.00000000E+00  0.00000000E+00  0.00000000E+00
  0.00000000E+00  0.00000000E+00  0.00000000E+00
  0.00000000E+00  0.00000000E+00  0.00000000E+00
  0.00000000E+00  0.00000000E+00  0.00000000E+00
  0.00000000E+00  0.00000000E+00  0.00000000E+00
