Li6 Mg5 Bi16 S16 O16                    
   1.00000000000000     
    11.2485571436479521    0.0041027018014829    0.0114677947801609
     0.0030333170572363    9.6300891317591439   -0.1201016016620426
     0.0112284262418598   -0.1408145270876854   11.2540299769738965
   Li   Mg   Bi   S    O 
     6     5    16    16    16
Direct
  0.1280629905859439  0.0053178036844151  0.1926596612073621
  0.6270802154734577  0.0061324864848571  0.3934438832847799
  0.6289069073197587  0.0019061420121568  0.1511794813603903
  0.1299043652324118 -0.0048302001520395  0.6914638961983818
  0.3643981379616517  0.0063266342749549  0.9417939794438615
  0.8970260676274775 -0.0095499647493323  0.9468723109088844
  0.3832719330654842  0.0016451726076161  0.1947462124615292
  0.8741640554623479  0.0059508080450088  0.1973558720681130
  0.3781175073950065  0.0008534593029253  0.6775660094290569
  0.6292671111682192 -0.0015545240368026  0.7042481531612097
  0.8808726105216975 -0.0082768135113859  0.6823654123909577
  0.0010505346320024  0.3053509603834480  0.0673449377382791
  0.2579032691420343  0.6942056031032365  0.0647649906967942
  0.2515702187561202  0.3104769340663867  0.3091644438675600
  0.5053330602268581  0.6991136503938767  0.3058124793402792
  0.4997448776764491  0.3062056854110526  0.0669460741064964
  0.7595738737359852  0.6929554948291703  0.0663400576517089
  0.7516959017774045  0.3139469447072841  0.3076003356547097
  0.0064479631418210  0.7054962581642198  0.3093644278684186
  0.0078755765543616  0.2929014152811472  0.5677356298587725
  0.2507132936501205  0.6886884389887232  0.5661841414796519
  0.2569790749551684  0.3075473169383821  0.8131663767916735
  0.4999223193659438  0.6895414204736736  0.8083063769772112
  0.5051888027443321  0.3082347981171527  0.5690930664656527
  0.7535705182284951  0.6797350151042861  0.5680511302701271
  0.7588055533233365  0.3138052018040954  0.8103931192506515
  0.0015832512708809  0.6912533199867893  0.8123901620561943
  0.2570222348386094  0.3550513247443642  0.0613309211059772
  0.0018383460256766  0.6443828020654967  0.0682253522700653
  0.5031289235737265  0.3515092808764774  0.3097197469785307
  0.2561017305861207  0.6687788315312605  0.3148628229377448
  0.7554665081524699  0.3498034398574482  0.0614593395300826
  0.5034762949611282  0.6481625324015593  0.0679668014838934
  0.0009186831696463  0.3455696068919133  0.3089201401034469
  0.7539897214863048  0.6619023928634613  0.3169890686850109
  0.2563104803923132  0.3322239927960419  0.5639256660699352
  0.0015301305367767  0.6528533419275113  0.5702968653450124
  0.5037733647875591  0.3553241081405039  0.8093197548310151
  0.2571965362406795  0.6478191683044563  0.8165514197561095
  0.7540058253120867  0.3424360633901690  0.5613795341451164
  0.5038464898779969  0.6454998143214900  0.5682869651884097
  0.0016602883045501  0.3517511679491108  0.8096263835758080
  0.7545385765416983  0.6453838547717372  0.8166738129642753
  0.4863137594571525  0.0906911477396156  0.0733088409846581
  0.2774081934745071  0.9083033922532805  0.0751507902180983
  0.2557564325841268  0.1020960495150628  0.2759628857927934
  0.0019848814506907  0.9125217303272020  0.2792490353685371
  0.9823485915506949  0.0916601785735180  0.0788671141308178
  0.7730965427110276  0.9090131924231947  0.0748160549589140
  0.7393196436392184  0.0964464498069662  0.2862607076509753
  0.5171064010783415  0.9153245933509248  0.2842775130182162
  0.5153468392156050  0.0896908363699371  0.5923856215644997
  0.2523402698745083  0.8971963941764670  0.6004958084017755
  0.2778248956437641  0.0926483016096745  0.8023817531567633
 -0.0190190068258888  0.9059918761196096  0.8056359018932341
  0.0068996140881324  0.0862915499144330  0.6008067584987065
  0.7454483657848098  0.8973576123055566  0.5983939527622351
  0.7627269364223819  0.0944696783423934  0.7878780932662237
  0.4943135140688000  0.9083558326238470  0.7879719513744387
 
  0.00000000E+00  0.00000000E+00  0.00000000E+00
  0.00000000E+00  0.00000000E+00  0.00000000E+00
  0.00000000E+00  0.00000000E+00  0.00000000E+00
  0.00000000E+00  0.00000000E+00  0.00000000E+00
  0.00000000E+00  0.00000000E+00  0.00000000E+00
  0.00000000E+00  0.00000000E+00  0.00000000E+00
  0.00000000E+00  0.00000000E+00  0.00000000E+00
  0.00000000E+00  0.00000000E+00  0.00000000E+00
  0.00000000E+00  0.00000000E+00  0.00000000E+00
  0.00000000E+00  0.00000000E+00  0.00000000E+00
  0.00000000E+00  0.00000000E+00  0.00000000E+00
  0.00000000E+00  0.00000000E+00  0.00000000E+00
  0.00000000E+00  0.00000000E+00  0.00000000E+00
  0.00000000E+00  0.00000000E+00  0.00000000E+00
  0.00000000E+00  0.00000000E+00  0.00000000E+00
  0.00000000E+00  0.00000000E+00  0.00000000E+00
  0.00000000E+00  0.00000000E+00  0.00000000E+00
  0.00000000E+00  0.00000000E+00  0.00000000E+00
  0.00000000E+00  0.00000000E+00  0.00000000E+00
  0.00000000E+00  0.00000000E+00  0.00000000E+00
  0.00000000E+00  0.00000000E+00  0.00000000E+00
  0.00000000E+00  0.00000000E+00  0.00000000E+00
  0.00000000E+00  0.00000000E+00  0.00000000E+00
  0.00000000E+00  0.00000000E+00  0.00000000E+00
  0.00000000E+00  0.00000000E+00  0.00000000E+00
  0.00000000E+00  0.00000000E+00  0.00000000E+00
  0.00000000E+00  0.00000000E+00  0.00000000E+00
  0.00000000E+00  0.00000000E+00  0.00000000E+00
  0.00000000E+00  0.00000000E+00  0.00000000E+00
  0.00000000E+00  0.00000000E+00  0.00000000E+00
  0.00000000E+00  0.00000000E+00  0.00000000E+00
  0.00000000E+00  0.00000000E+00  0.00000000E+00
  0.00000000E+00  0.00000000E+00  0.00000000E+00
  0.00000000E+00  0.00000000E+00  0.00000000E+00
  0.00000000E+00  0.00000000E+00  0.00000000E+00
  0.00000000E+00  0.00000000E+00  0.00000000E+00
  0.00000000E+00  0.00000000E+00  0.00000000E+00
  0.00000000E+00  0.00000000E+00  0.00000000E+00
  0.00000000E+00  0.00000000E+00  0.00000000E+00
  0.00000000E+00  0.00000000E+00  0.00000000E+00
  0.00000000E+00  0.00000000E+00  0.00000000E+00
  0.00000000E+00  0.00000000E+00  0.00000000E+00
  0.00000000E+00  0.00000000E+00  0.00000000E+00
  0.00000000E+00  0.00000000E+00  0.00000000E+00
  0.00000000E+00  0.00000000E+00  0.00000000E+00
  0.00000000E+00  0.00000000E+00  0.00000000E+00
  0.00000000E+00  0.00000000E+00  0.00000000E+00
  0.00000000E+00  0.00000000E+00  0.00000000E+00
  0.00000000E+00  0.00000000E+00  0.00000000E+00
  0.00000000E+00  0.00000000E+00  0.00000000E+00
  0.00000000E+00  0.00000000E+00  0.00000000E+00
  0.00000000E+00  0.00000000E+00  0.00000000E+00
  0.00000000E+00  0.00000000E+00  0.00000000E+00
  0.00000000E+00  0.00000000E+00  0.00000000E+00
  0.00000000E+00  0.00000000E+00  0.00000000E+00
  0.00000000E+00  0.00000000E+00  0.00000000E+00
  0.00000000E+00  0.00000000E+00  0.00000000E+00
  0.00000000E+00  0.00000000E+00  0.00000000E+00
  0.00000000E+00  0.00000000E+00  0.00000000E+00
