Li16 Bi16 S16 O16                       
   1.00000000000000     
    11.0945486189073286    0.0000000000000000    0.0000000000000000
     0.0000000000000000    9.3830127727614077    0.0000000000000000
     0.0000000000000000    0.0000000000000000   11.0941484524739380
   Li   Bi   S    O 
    16    16    16    16
Direct
  0.1249552175255704  0.0000164108089659  0.4373993737872799
  0.3749552175255705 -0.0000164108089659  0.4373993737872799
  0.1250447824744295  0.0000164108089659  0.1873993737872799
  0.3750447824744295 -0.0000164108089659  0.1873993737872799
  0.6249552175255704  0.0000164108089659  0.4373993737872799
  0.8749552175255704 -0.0000164108089659  0.4373993737872799
  0.6250447824744296  0.0000164108089659  0.1873993737872799
  0.8750447824744296 -0.0000164108089659  0.1873993737872799
  0.1249552175255704  0.0000164108089659  0.9373993737872799
  0.3749552175255705 -0.0000164108089659  0.9373993737872799
  0.1250447824744295  0.0000164108089659  0.6873993737872799
  0.3750447824744295 -0.0000164108089659  0.6873993737872799
  0.6249552175255704  0.0000164108089659  0.9373993737872799
  0.8749552175255704 -0.0000164108089659  0.9373993737872799
  0.6250447824744296  0.0000164108089659  0.6873993737872799
  0.8750447824744296 -0.0000164108089659  0.6873993737872799
 -0.0000049287466593  0.3002515686805924  0.0625039713810117
  0.2499950712533406  0.6997484313194082  0.0625039713810117
  0.2500049287466594  0.3002515686805924  0.3125039713810118
  0.5000049287466594  0.6997484313194082  0.3125039713810118
  0.4999950712533406  0.3002515686805924  0.0625039713810117
  0.7499950712533408  0.6997484313194082  0.0625039713810117
  0.7500049287466592  0.3002515686805924  0.3125039713810118
  0.0000049287466593  0.6997484313194082  0.3125039713810118
 -0.0000049287466593  0.3002515686805924  0.5625039713810117
  0.2499950712533406  0.6997484313194082  0.5625039713810117
  0.2500049287466594  0.3002515686805924  0.8125039713810117
  0.5000049287466594  0.6997484313194082  0.8125039713810117
  0.4999950712533406  0.3002515686805924  0.5625039713810117
  0.7499950712533408  0.6997484313194082  0.5625039713810117
  0.7500049287466592  0.3002515686805924  0.8125039713810117
  0.0000049287466593  0.6997484313194082  0.8125039713810117
  0.2500031100607134  0.3448665024301745  0.0626717226619058
  0.0000031100607134  0.6551334975698253  0.0626717226619058
  0.4999968899392866  0.3448665024301745  0.3126717226619059
  0.2499968899392866  0.6551334975698253  0.3126717226619059
  0.7500031100607133  0.3448665024301745  0.0626717226619058
  0.5000031100607133  0.6551334975698253  0.0626717226619058
  0.9999968899392867  0.3448665024301745  0.3126717226619059
  0.7499968899392867  0.6551334975698253  0.3126717226619059
  0.2500031100607134  0.3448665024301745  0.5626717226619055
  0.0000031100607134  0.6551334975698253  0.5626717226619055
  0.4999968899392866  0.3448665024301745  0.8126717226619055
  0.2499968899392866  0.6551334975698253  0.8126717226619055
  0.7500031100607133  0.3448665024301745  0.5626717226619055
  0.5000031100607133  0.6551334975698253  0.5626717226619055
  0.9999968899392867  0.3448665024301745  0.8126717226619055
  0.7499968899392867  0.6551334975698253  0.8126717226619055
  0.5000150880280402  0.0776756518069375  0.0624349321698058
 -0.0000150880280401  0.9223243481930623  0.3124349321698058
  0.2500150880280401  0.9223243481930623  0.0624349321698058
  0.2499849119719599  0.0776756518069375  0.3124349321698058
  0.0000150880280402  0.0776756518069375  0.0624349321698058
  0.4999849119719598  0.9223243481930623  0.3124349321698058
  0.7500150880280402  0.9223243481930623  0.0624349321698058
  0.7499849119719598  0.0776756518069375  0.3124349321698058
  0.5000150880280402  0.0776756518069375  0.5624349321698058
 -0.0000150880280401  0.9223243481930623  0.8124349321698058
  0.2500150880280401  0.9223243481930623  0.5624349321698058
  0.2499849119719599  0.0776756518069375  0.8124349321698058
  0.0000150880280402  0.0776756518069375  0.5624349321698058
  0.4999849119719598  0.9223243481930623  0.8124349321698058
  0.7500150880280402  0.9223243481930623  0.5624349321698058
  0.7499849119719598  0.0776756518069375  0.8124349321698058
 
  0.00000000E+00  0.00000000E+00  0.00000000E+00
  0.00000000E+00  0.00000000E+00  0.00000000E+00
  0.00000000E+00  0.00000000E+00  0.00000000E+00
  0.00000000E+00  0.00000000E+00  0.00000000E+00
  0.00000000E+00  0.00000000E+00  0.00000000E+00
  0.00000000E+00  0.00000000E+00  0.00000000E+00
  0.00000000E+00  0.00000000E+00  0.00000000E+00
  0.00000000E+00  0.00000000E+00  0.00000000E+00
  0.00000000E+00  0.00000000E+00  0.00000000E+00
  0.00000000E+00  0.00000000E+00  0.00000000E+00
  0.00000000E+00  0.00000000E+00  0.00000000E+00
  0.00000000E+00  0.00000000E+00  0.00000000E+00
  0.00000000E+00  0.00000000E+00  0.00000000E+00
  0.00000000E+00  0.00000000E+00  0.00000000E+00
  0.00000000E+00  0.00000000E+00  0.00000000E+00
  0.00000000E+00  0.00000000E+00  0.00000000E+00
  0.00000000E+00  0.00000000E+00  0.00000000E+00
  0.00000000E+00  0.00000000E+00  0.00000000E+00
  0.00000000E+00  0.00000000E+00  0.00000000E+00
  0.00000000E+00  0.00000000E+00  0.00000000E+00
  0.00000000E+00  0.00000000E+00  0.00000000E+00
  0.00000000E+00  0.00000000E+00  0.00000000E+00
  0.00000000E+00  0.00000000E+00  0.00000000E+00
  0.00000000E+00  0.00000000E+00  0.00000000E+00
  0.00000000E+00  0.00000000E+00  0.00000000E+00
  0.00000000E+00  0.00000000E+00  0.00000000E+00
  0.00000000E+00  0.00000000E+00  0.00000000E+00
  0.00000000E+00  0.00000000E+00  0.00000000E+00
  0.00000000E+00  0.00000000E+00  0.00000000E+00
  0.00000000E+00  0.00000000E+00  0.00000000E+00
  0.00000000E+00  0.00000000E+00  0.00000000E+00
  0.00000000E+00  0.00000000E+00  0.00000000E+00
  0.00000000E+00  0.00000000E+00  0.00000000E+00
  0.00000000E+00  0.00000000E+00  0.00000000E+00
  0.00000000E+00  0.00000000E+00  0.00000000E+00
  0.00000000E+00  0.00000000E+00  0.00000000E+00
  0.00000000E+00  0.00000000E+00  0.00000000E+00
  0.00000000E+00  0.00000000E+00  0.00000000E+00
  0.00000000E+00  0.00000000E+00  0.00000000E+00
  0.00000000E+00  0.00000000E+00  0.00000000E+00
  0.00000000E+00  0.00000000E+00  0.00000000E+00
  0.00000000E+00  0.00000000E+00  0.00000000E+00
  0.00000000E+00  0.00000000E+00  0.00000000E+00
  0.00000000E+00  0.00000000E+00  0.00000000E+00
  0.00000000E+00  0.00000000E+00  0.00000000E+00
  0.00000000E+00  0.00000000E+00  0.00000000E+00
  0.00000000E+00  0.00000000E+00  0.00000000E+00
  0.00000000E+00  0.00000000E+00  0.00000000E+00
  0.00000000E+00  0.00000000E+00  0.00000000E+00
  0.00000000E+00  0.00000000E+00  0.00000000E+00
  0.00000000E+00  0.00000000E+00  0.00000000E+00
  0.00000000E+00  0.00000000E+00  0.00000000E+00
  0.00000000E+00  0.00000000E+00  0.00000000E+00
  0.00000000E+00  0.00000000E+00  0.00000000E+00
  0.00000000E+00  0.00000000E+00  0.00000000E+00
  0.00000000E+00  0.00000000E+00  0.00000000E+00
  0.00000000E+00  0.00000000E+00  0.00000000E+00
  0.00000000E+00  0.00000000E+00  0.00000000E+00
  0.00000000E+00  0.00000000E+00  0.00000000E+00
  0.00000000E+00  0.00000000E+00  0.00000000E+00
  0.00000000E+00  0.00000000E+00  0.00000000E+00
  0.00000000E+00  0.00000000E+00  0.00000000E+00
  0.00000000E+00  0.00000000E+00  0.00000000E+00
  0.00000000E+00  0.00000000E+00  0.00000000E+00
