Li4 Mg6 Bi16 S16 O16                    
   1.00000000000000     
    11.2125727070914625    0.0956624959855127   -0.3027202397699462
     0.0757113688725454    9.4767507396504698   -0.2503293320681734
    -0.2954621522647645   -0.2942443541825516   11.1812814993157534
   Li   Mg   Bi   S    O 
     4     6    16    16    16
Direct
  0.0549469561239026  0.0149315442940262  0.2569512092440590
  0.3978288794737475 -0.0445299131569284  0.6270707150598844
  0.8526088983214294  0.0475467816924164  0.0016362220847650
  0.8641672422725808  0.0072132337436393  0.7077199416882047
  0.8526101038270337  0.0087838673339003  0.4431630451139255
  0.6210333947960842  0.0053320310130472  0.1879184396284090
  0.1120011889564819  0.0393151474379969  0.9208959398668288
  0.3706526887782824  0.0472944940992378  0.9195861102026684
  0.1203016676527402  0.0022911981208140  0.6611325698539439
  0.6272300553142424  0.0125299141927227  0.9156653779015529
  0.0202509871502127  0.3313654299248142  0.0858950758713024
  0.2470098766686130  0.7849310931840466  0.1095884334957579
  0.3567658365658072  0.0731382438283642  0.3243407719424960
  0.4863752612839871  0.6831529936824462  0.3170992933445128
  0.5002541727296804  0.3343234996913229  0.0653815714789214
  0.7508245450637709  0.7033731950435262  0.0637369267907869
  0.7506614614219329  0.3136687285020502  0.3196645377953614
 -0.0080944627800219  0.6864074803327868  0.3218894995862259
 -0.0038812624928763  0.3150964356322059  0.5628381198744727
  0.2401298188999341  0.6729710125568041  0.5617579640319577
  0.2468670970125154  0.3350644799755583  0.8033326257596914
  0.4873448643556936  0.6995688308866008  0.8194408534402198
  0.4824752591241266  0.2894362354612478  0.5577668644275010
  0.7439210325506248  0.7087071146382703  0.5687265189334864
  0.7574505414360317  0.3133815103354055  0.8226337861642720
  0.0103448828714728  0.7034220261167921  0.8182668392618220
  0.2689849127660505  0.3045188660473751  0.0487869747745022
  0.0129695807822994  0.7247365578547993  0.0638200165530554
  0.4997670592433099  0.3651920622711906  0.3087536074183029
  0.2226568336986080  0.6068936707070782  0.3245294559476076
  0.7690616051564239  0.3655927052010468  0.0641190667438341
  0.5115327768511430  0.6574762080226972  0.0582903672697924
 -0.0023173843952536  0.2702690343971146  0.3207000022371754
  0.7213165724983536  0.6772925456269839  0.3230007561964026
  0.2503778766545092  0.3339500235791664  0.5546238107246200
 -0.0111902621651142  0.6420327255807622  0.5626435509975933
  0.5011860539421883  0.2829807118131862  0.8070519470804157
  0.2455281427087887  0.6509829834668479  0.8270871119832187
  0.7529887154715397  0.3464918444452052  0.5617374212807882
  0.4904457052948402  0.6731097865818654  0.5629550001038631
  0.0014416448506664  0.3641158333297912  0.8254276411024174
  0.7383467662017613  0.6722907157723670  0.8238755681249030
  0.5206568501853508  0.1025339106470164  0.0471945206291336
  0.2514464022675514  0.9491446229053835 -0.0026995001576983
  0.2141765343046749 -0.0588372499559751  0.2542423942832723
 -0.0355161886444664  0.8988445310928336  0.3437086550765502
  0.0071898909459943  0.1159282228908606  0.0455369214598001
  0.7202823395147667  0.9266889744860153  0.0552056863699418
  0.7308707979033194  0.0932543454843251  0.3165120105387146
  0.4848487621585812  0.9168595199394679  0.2681812942853819
  0.4473586622786784  0.0751090108436601  0.5084952215528528
  0.2412312934478579  0.8928512703742857  0.5796543556358142
  0.2252155898495184  0.1052688412370712  0.7972349688102667
  0.0204021905772858  0.9247753594740109  0.7914211116671985
  0.9776156866046668  0.0938089557630573  0.5776108029753892
  0.7739536239330825  0.9198383839474353  0.5735468274300647
  0.7689881680486834  0.0940185485625416  0.8465605918268388
  0.4861018096863093  0.9236498690473984  0.8249525862349900
 
  0.00000000E+00  0.00000000E+00  0.00000000E+00
  0.00000000E+00  0.00000000E+00  0.00000000E+00
  0.00000000E+00  0.00000000E+00  0.00000000E+00
  0.00000000E+00  0.00000000E+00  0.00000000E+00
  0.00000000E+00  0.00000000E+00  0.00000000E+00
  0.00000000E+00  0.00000000E+00  0.00000000E+00
  0.00000000E+00  0.00000000E+00  0.00000000E+00
  0.00000000E+00  0.00000000E+00  0.00000000E+00
  0.00000000E+00  0.00000000E+00  0.00000000E+00
  0.00000000E+00  0.00000000E+00  0.00000000E+00
  0.00000000E+00  0.00000000E+00  0.00000000E+00
  0.00000000E+00  0.00000000E+00  0.00000000E+00
  0.00000000E+00  0.00000000E+00  0.00000000E+00
  0.00000000E+00  0.00000000E+00  0.00000000E+00
  0.00000000E+00  0.00000000E+00  0.00000000E+00
  0.00000000E+00  0.00000000E+00  0.00000000E+00
  0.00000000E+00  0.00000000E+00  0.00000000E+00
  0.00000000E+00  0.00000000E+00  0.00000000E+00
  0.00000000E+00  0.00000000E+00  0.00000000E+00
  0.00000000E+00  0.00000000E+00  0.00000000E+00
  0.00000000E+00  0.00000000E+00  0.00000000E+00
  0.00000000E+00  0.00000000E+00  0.00000000E+00
  0.00000000E+00  0.00000000E+00  0.00000000E+00
  0.00000000E+00  0.00000000E+00  0.00000000E+00
  0.00000000E+00  0.00000000E+00  0.00000000E+00
  0.00000000E+00  0.00000000E+00  0.00000000E+00
  0.00000000E+00  0.00000000E+00  0.00000000E+00
  0.00000000E+00  0.00000000E+00  0.00000000E+00
  0.00000000E+00  0.00000000E+00  0.00000000E+00
  0.00000000E+00  0.00000000E+00  0.00000000E+00
  0.00000000E+00  0.00000000E+00  0.00000000E+00
  0.00000000E+00  0.00000000E+00  0.00000000E+00
  0.00000000E+00  0.00000000E+00  0.00000000E+00
  0.00000000E+00  0.00000000E+00  0.00000000E+00
  0.00000000E+00  0.00000000E+00  0.00000000E+00
  0.00000000E+00  0.00000000E+00  0.00000000E+00
  0.00000000E+00  0.00000000E+00  0.00000000E+00
  0.00000000E+00  0.00000000E+00  0.00000000E+00
  0.00000000E+00  0.00000000E+00  0.00000000E+00
  0.00000000E+00  0.00000000E+00  0.00000000E+00
  0.00000000E+00  0.00000000E+00  0.00000000E+00
  0.00000000E+00  0.00000000E+00  0.00000000E+00
  0.00000000E+00  0.00000000E+00  0.00000000E+00
  0.00000000E+00  0.00000000E+00  0.00000000E+00
  0.00000000E+00  0.00000000E+00  0.00000000E+00
  0.00000000E+00  0.00000000E+00  0.00000000E+00
  0.00000000E+00  0.00000000E+00  0.00000000E+00
  0.00000000E+00  0.00000000E+00  0.00000000E+00
  0.00000000E+00  0.00000000E+00  0.00000000E+00
  0.00000000E+00  0.00000000E+00  0.00000000E+00
  0.00000000E+00  0.00000000E+00  0.00000000E+00
  0.00000000E+00  0.00000000E+00  0.00000000E+00
  0.00000000E+00  0.00000000E+00  0.00000000E+00
  0.00000000E+00  0.00000000E+00  0.00000000E+00
  0.00000000E+00  0.00000000E+00  0.00000000E+00
  0.00000000E+00  0.00000000E+00  0.00000000E+00
  0.00000000E+00  0.00000000E+00  0.00000000E+00
  0.00000000E+00  0.00000000E+00  0.00000000E+00
