Li Mg Bi  S  O 
 1.0000000000000000
    11.1784999999999997    0.0000000000000000    0.0000000000000000
     0.0000000000000000    9.5746000000000002    0.0000000000000000
     0.0000000000000000    0.0000000000000000   11.1823999999999995
 Li  Mg  Bi  S   O  
   4   6  16  16  16
Direct
  0.3726576418338140 -0.0093286004883503  0.2279030034729799
  0.3799786351372993 -0.0106852741514168  0.9812327259266719
  0.6135103992404618  1.0084803071445583  0.9273105790483229
  0.6447114138734806  1.0319225788530915  0.5584819366440360
  0.1138928436692472  0.9955624449637367  0.1777959702546865
  0.8983923080034193  0.0083769583398197  0.4196485050752370
  0.6505929098453967  1.0025103884117830  0.1882704496059639
  0.1038770199954037  1.0045969971175754  0.6966669680746743
  0.3701747107560268  0.0129099798759898  0.6935964173119743
  0.8785531968944702  0.0004072695892730  0.9442162124536005
  0.0066974971572729  0.3034796325258519  0.0561623870912503
  0.2538288148631112  0.6916871555336790  0.0675858438765207
  0.2551131343983757  0.3059943369533974  0.3025126784041179
  0.5104253558324754  0.6983000427085571  0.3164797236420405
  0.5111137179923487  0.3066365118277358  0.0622264649619163
  0.7421209826038331  0.6880356132785783  0.0551635740419802
  0.7583563966042952  0.3133517280706702  0.3126336482223681
  0.9977116710386108  0.6865978557453181  0.3105344283782416
  0.0106242547143375  0.3066096491920030  0.5654278073157466
  0.2480957507367190  0.6997885285585344  0.5505573970616514
  0.2586470376139873  0.3257065796017926  0.8125418801134766
  0.4738482859885121  0.7108773315152854  0.8069515581261222
  0.4952391540747790  0.3140679880718136  0.5568521093022032
  0.7565389757987125  0.7104044584161523  0.5587700516042265
  0.7440074378714983  0.3140269239863751  0.8112793868901270
  0.9961495208067843  0.6942873229119605  0.8147885712579358
  0.2606897405952759  0.3456100247739292  0.0573788005854897
 -0.0122394263097452  0.6587871394707721  0.0652536375416200
  0.5089651899523499  0.3404422545556252  0.3114579789539030
  0.2463409649948165  0.6590481418459667  0.3089489070503659
  0.7515285829307752  0.3627798921731664  0.0670576585631909
  0.4935783312852478  0.6452485697201941  0.0527156488038609
  1.0017656953277099  0.3480102841341319  0.3104877568286202
  0.7549989864616455  0.6483956779723906  0.3225072013651959
  0.2558177793000644  0.3636820301601698  0.5582122239310712
 -0.0064990020297629  0.6534495870070817  0.5675881898152303
  0.5047376407611296  0.3572552282021687  0.8078899767780091
  0.2418064124492179  0.6441323195128728  0.8183139118959113
  0.7446536724415385  0.2900103306028822  0.5637366451792496
  0.4921829357091208  0.6897023130525483  0.5597887245040086
  1.0146708091288670  0.3431615424440252  0.8111966820538622
  0.7473792680333544  0.6636959832338116  0.8134484027180974
  0.5230006949497855  0.0873012150674319  0.0672358942184075
  0.2575246358226356  0.9095820025475579  0.0831054792952974
  0.2371378921950085  0.0969851716386851  0.2718388716845395
  0.0061683068803194  0.9068203095378260  0.3035594466314033
  0.9986374969117496  0.0853048450442618  0.0601331759723092
  0.7421733336323826  0.9111531369881392  0.0511115971121266
  0.7694317611447230  0.0944561609600479  0.3007764564130548
  0.5202128912000267  0.9074440482270546  0.2781311494818145
  0.4894694653665961  0.1033035959283573  0.5904646713774572
  0.2399340711324752  0.9026791480315557  0.6186586386641965
  0.2371662620898568  0.1115311215730568  0.7796119224644555
 -0.0080655808899495  0.9138290497666204  0.8185209354801812
  1.0108435174214443  0.0883738677911777  0.5561430706541423
  0.7733388833729066  0.9180644566073037  0.5223144385077623
  0.7529437152725156  0.1063192492308144  0.8564674616592893
  0.4621307980204060  0.9256662608673626  0.8314978912716389
