Li Mg Bi  S  O 
 1.0000000000000000
    11.1784999999999997    0.0000000000000000    0.0000000000000000
     0.0000000000000000    9.5746000000000002    0.0000000000000000
     0.0000000000000000    0.0000000000000000   11.1823999999999995
 Li  Mg  Bi  S   O  
   4   6  16  16  16
Direct
  0.3733218233217795 -0.0026656006679696  0.3188892085767249
  0.3663575750336408 -0.0119424685673774  0.6884650257955086
  0.6177591444154245  0.9936184832971409  0.9346572092100973
  0.6357490551269140  1.0042689203638229  0.5678933996939400
  0.1119100052224271  0.9898529368165238  0.1869700515088091
  0.8911037275367085  0.0002783656378216  0.4275400300065040
  0.6415915458511016  0.9977573635900436  0.1919611377529045
  0.3552603636090302 -0.0005069292384446  0.9615205025096019
  0.1026030899529141  0.9994670929991299  0.7099101949366710
  0.8813552628987033 -0.0105135002267409  0.9570438345283356
  0.0007381012561026  0.2995558557341210  0.0696363659163570
  0.2448045769602197  0.6862897574788113  0.0739867624289005
  0.2483434177440685  0.3006045891756710  0.3136425212424747
  0.4978043592870359  0.6927683002166535  0.3242272842774745
  0.5031466997235891  0.3056606386743617  0.0649373572901226
  0.7425176007013061  0.6808390365342214  0.0686989104644221
  0.7492365437631352  0.3052709037409501  0.3188821912990198
  0.9965513860685802  0.6843131879023325  0.3234611000952273
  0.0011998370967182  0.2997616672198389  0.5691068442429318
  0.2368094714500334  0.6865727334623173  0.5800802319480122
  0.2520511171669442  0.3049940815763608  0.8185211157820106
  0.4872327498875166  0.6918597675766651  0.8243215983795499
  0.4899866268581388  0.2837920410118941  0.5668372729279414
  0.7432934149461817  0.6933018480761437  0.5666264310906377
  0.7516127593402632  0.2925696269040086  0.8226122094284645
  0.9906457599046606  0.6856309330537412  0.8190965233109680
  0.2570093279591861  0.3443948962183614  0.0744962819050657
 -0.0083179461716157  0.6504072718358456  0.0750458863674318
  0.5004570776752828  0.3034784540344813  0.3196167516590858
  0.2481779325869459  0.6729001427866855  0.3222423621423326
  0.7494153865895072  0.3518248283539199  0.0640795436526114
  0.4951567622300457  0.6376492231678397  0.0699906341117850
  0.9935370063598473  0.3438759283202978  0.3183581839346425
  0.7376863552236830  0.6320977950565346  0.3262211981512309
  0.2434622729410016  0.3356222480675687  0.5706277215095765
 -0.0090679939723435  0.6397975747015648  0.5708529575762804
  0.4945674970452449  0.3414656711655931  0.8180760375371816
  0.2421190892556296  0.6301289534041334  0.8205899828324684
  0.7385902463278499  0.2791480983833435  0.5741212743803771
  0.4948513991485030  0.6956206739564028  0.5741774551105104
  1.0070202857103645  0.3225076079555020  0.8233886850231609
  0.7464647792651620  0.6482375615743060  0.8233039454507882
  0.5103283157243018  0.0840004834091580  0.0581575691869034
  0.2415298378258480  0.9060907264927867  0.0752124864961224
  0.2313772481991422  0.0903873989882001  0.2860062696086682
 -0.0003027912586694  0.9029355754644804  0.3102701448341819
  0.9980404137607067  0.0804545769720581  0.0703484215599504
  0.7396704245423721  0.9040475430153768  0.0611572598199188
  0.7643690996803026  0.0880046108878862  0.3056514762973636
  0.5178127268962969  0.9017029538015560  0.2889347494323657
  0.4786147061646632  0.0732709693201532  0.5774769363241056
  0.2245699333535305  0.8916027755079753  0.6259735008876482
  0.2523806632896912  0.0828348172134105  0.8200391174006557
 -0.0078661309237437  0.9039560891447282  0.8289352687585964
  1.0036127937516452  0.0822228689424538  0.5663900609055355
  0.7707050532745557  0.8982517982659621  0.5276651903063959
  0.7553952458363122  0.0848251708834536  0.8624414782743834
  0.4700921838798180  0.9058945597206747  0.8507431508513742
