Li Mg Bi  S  O 
 1.0000000000000000
    11.1784999999999997    0.0000000000000000    0.0000000000000000
     0.0000000000000000    9.5746000000000002    0.0000000000000000
     0.0000000000000000    0.0000000000000000   11.1823999999999995
 Li  Mg  Bi  S   O  
   4   6  16  16  16
Direct
  0.3620988213940592  0.0103362410381998  0.5149766480738918
  0.3661543139123773  0.0036793908115713  0.1894907368047420
  0.6240097231961962  0.9982704495420556  0.9365444925741546
  0.9474195363636695  0.0028422277780052  0.9278269504330044
  0.1064138166360913  0.9952335000636641  0.1924699482620031
  0.8768561520611089 -0.0019353960788303  0.4409145653105981
  0.6375987860929337  1.0028902466649572  0.2001687688828908
  0.3620562763758530 -0.0015241632963075  0.9308722746428203
  0.1194029916119729  1.0020956717192362  0.6843865217251378
  0.6267451934825071  0.9971771208212855  0.6763352637662912
 -0.0027994098224192  0.3005867057352831  0.0638317995031515
  0.2437912773543386  0.6909197021707102  0.0631789228350358
  0.2473146148171361  0.3064360469954254  0.3068151566570809
  0.4964143379491326  0.7051875144654790  0.3080657562227662
  0.4960230312070576  0.3136215713709302  0.0606964308150395
  0.7436377733483421  0.6977397854852690  0.0635750033472160
  0.7492688960618621  0.3025678906622294  0.3142034688787845
  0.9960950982210152  0.6894382012842957  0.3155481188112029
 -0.0020848103469239  0.3049510366533748  0.5626208555766571
  0.2464140541595753  0.6949244871562463  0.5645340442613020
  0.2463501364964280  0.3036371730213279  0.8111531021695005
  0.4971573352723216  0.6911919645721184  0.8152013667844513
  0.4976433213874197  0.3043001948431733  0.5620449220626561
  0.7459784840574096  0.6945004745503623  0.5607727665514203
  0.7425974278602292  0.3020874279948357  0.8110793318086332
  0.9982732895463771  0.6929850025296942  0.8100561591507568
  0.2457252209098169  0.3572551046333942  0.0646344376104164
 -0.0012027131642420  0.6736960321582613  0.0654562772126597
  0.4982824262863412  0.3351022592859416  0.3094169662377058
  0.2487740984179861  0.6608813867868104  0.3125386271990581
  0.7470280214383801  0.3342450910550119  0.0608810910679325
  0.5018222355748514  0.6382366439002577  0.0631761300641623
  0.9921659742150747  0.3452412018347603  0.3146595800457382
  0.7486012285805808  0.6600128364863026  0.3165597543630375
  0.2473715748745627  0.3191589966230999  0.5598621334783876
  0.0010151785884598  0.6482192521858964  0.5628439498287315
  0.4900519743813356  0.3524901533636061  0.8117323317628924
  0.2483959836160089  0.6506473856421632  0.8149145642815709
  0.7429583521719382  0.3451914914665232  0.5586945146862119
  0.4993774837801959  0.6780364010180046  0.5651434796085245
  0.9981382797399769  0.3266631647482569  0.8115719961798927
  0.7480651649499180  0.6587830559253699  0.8105391728857886
  0.4893862688424669  0.0893961642699699  0.0544652052315986
  0.2551500068042299  0.9132507509554463  0.0683335973660742
  0.2363975027558907  0.0953634253553431  0.2761681362349372
 -0.0070870312255295  0.9080554780548103  0.3172764472197488
  1.0074641957272945  0.0867726520542720  0.0687006448876254
  0.7146873667092484  0.9096698826380967  0.0640121226840632
  0.7567615175283539  0.0846712307376277  0.3177698355092662
  0.4978878358940029  0.9167333684694674  0.2778281408652451
  0.5047737050390516  0.0917680305971731  0.5764146937331192
  0.2368488513761355  0.9074188239458955  0.5789695892803322
  0.2449291101146421  0.0844168505833912  0.8126551907419025
  0.0125650303737389  0.9055726330419341  0.7994342500202775
  0.9965260891091491  0.0865684005322801  0.5598600435742435
  0.7512019744764957  0.9130907151482290  0.5584941916991087
  0.7143570844037509  0.0905782612280135  0.8078907538056326
  0.5013886916191789  0.9117664288088958  0.8276915715432794
