Li Mg Bi  S  O 
 1.0000000000000000
    11.1784999999999997    0.0000000000000000    0.0000000000000000
     0.0000000000000000    9.5746000000000002    0.0000000000000000
     0.0000000000000000    0.0000000000000000   11.1823999999999995
 Li  Mg  Bi  S   O  
   8   4  16  16  16
Direct
  0.3583248239178152 -0.0048724603148149  0.4538765452757751
  0.1143132263983681  1.0057761272029935  0.2091419349165085
  0.6159806942250237  1.0001703815758292  0.4201986496366174
  0.8641755917509910 -0.0008614347761040  0.1873040392813710
  0.1268345421070030  0.9977727666981716  0.9483558192912012
  0.3789515838135670  0.0030130391398559  0.9114062876873116
  0.6261361368642648  1.0022232261940400  0.9485009570078089
  0.8725717129852080 -0.0053551085793068  0.9140527383833653
  0.3817436004719347 -0.0029898057327855  0.1819235901598679
  0.8823309740887627 -0.0038551086519488  0.4555392874995264
  0.1235554204081414  0.9997711972076860  0.6853178757169871
  0.6308449242555721  0.9966675843199269  0.6851113984229166
 -0.0001595989810810  0.2945255572725253  0.0651050138959454
  0.2505707213899983  0.6939325580795931  0.0637726415879884
  0.2526166373594722  0.3023102075897608  0.3108245534557426
  0.4964255705841270  0.6978648425226615  0.3136003933642903
  0.4973605776811178  0.3000512312485862  0.0617806595758730
  0.7544076916088344  0.7108176444231364  0.0606188403602091
  0.7530805061654753  0.3004726951985449  0.3155636119185499
  0.9969686638588189  0.6982628813681065  0.3136532929862249
  0.0022091956141850  0.3038280181445273  0.5650735594202632
  0.2512183402179638  0.7005711850797061  0.5657393794254484
  0.2470072687926596  0.3006150731244510  0.8137122323434393
  0.5042702010123660  0.6966788826583994  0.8135266037263399
  0.5031790322901918  0.2981866119548436  0.5621163848742160
  0.7488243023256894  0.6881228551815417  0.5622481380473491
  0.7457188058747254  0.3040715237262130  0.8163699909795918
  1.0043989402441946  0.6958794325131880  0.8157645502587985
  0.2493758365352449  0.3536389638215482  0.0643014870796851
  0.0003891261263228  0.6533805857291631  0.0646012653904152
  0.5017817544824277  0.3387387119679962  0.3121870506170049
  0.2506959674194967  0.6541568703555842  0.3128467383027010
  0.7510801345494967  0.3355907942292904  0.0625149542822412
  0.5016216950664176  0.6625742969480067  0.0648942295673069
  0.9997827248558455  0.3432297872667328  0.3169491124475704
  0.7507104724053549  0.6535882143708595  0.3160253008351073
  0.2507771780035971  0.3260594022968902  0.5631841260713204
  0.0005585012689585  0.6715592248296117  0.5639892357595818
  0.5004968218165617  0.3454751758008898  0.8122957461359784
  0.2501487359124275  0.6526205642890998  0.8139056667777507
  0.7505891443257275  0.3504466467879058  0.5656174741236083
  0.5019147430824936  0.6554879607593914  0.5634691268286219
  1.0022523337447298  0.3445328709395066  0.8118970976294795
  0.7520515373407093  0.6561666637280938  0.8113560951840488
  0.4784642006040464  0.0833906297937505  0.0491202195409632
  0.2581842818843386  0.9138151871260960  0.0680328379593046
  0.2625949521708618  0.0865648591580050  0.2907534530720347
 -0.0218217308088756  0.9156388071771595  0.3133715010702443
  1.0070737142225838  0.0786861622066239  0.0706519226897880
  0.7660852860583934  0.9230359023465375  0.0454082816914020
  0.7677098861526428  0.0851126808560009  0.3379680663693758
  0.4774615082095290  0.9151756212419544  0.3193117856621168
  0.5262320687805825  0.0825103489424744  0.5570247702196245
  0.2433659145314868  0.9138089423838875  0.5722508325537070
  0.2301415279401491  0.0836746849466600  0.8200984346232862
  0.0201361839418589  0.9127772969976872  0.8197742378029704
  0.9990930473825137  0.0854808031955573  0.5704447669419601
  0.7413795713646569  0.9109902502718091  0.5544140486756971
  0.7325238559658540  0.0867914724219656  0.8140899673515585
  0.5230253303848242  0.9133641544650338  0.8162571427625157
