Li Mg Bi  S  O 
 1.0000000000000000
    11.1784999999999997    0.0000000000000000    0.0000000000000000
     0.0000000000000000    9.5746000000000002    0.0000000000000000
     0.0000000000000000    0.0000000000000000   11.1823999999999995
 Li  Mg  Bi  S   O  
   2   7  16  16  16
Direct
  0.2935128742322783 -0.0522576156358488  0.9161166529665521
  0.6629849030931462  0.9776116070272992  0.8291337854631186
  0.0906745883032056  1.0610533137997644  0.2690016752739671
  0.3703173882482925  0.0232551987257188  0.1936711972598615
  0.9159859926043661  0.0593500969827586  0.4271976932166441
  0.6552369427943220  1.0100973970424247  0.1890622448489697
  0.1664818634096664  1.0378676468646413  0.5833505145418850
  0.4013909133431057 -0.0613492092250451  0.6282637024142269
  0.9716076324615993 -0.0692589429672757  0.9640630023456007
  0.0030609597630348  0.2538673235539908  0.0459319435108185
  0.2380795314873282  0.7044725445757413  0.0709359698879732
  0.2585550592814130  0.3531782280518194  0.2933403550882034
  0.5130658308772129  0.7034889116248576  0.3036804224202983
  0.5074162281391243  0.2883095295535073  0.0601268149417162
  0.7597994866354526  0.7118958166249126  0.0203964807821081
  0.7382042657309035  0.3231539889224849  0.3288518053291115
  0.9852221535137597  0.6924045284785115  0.3158130878961623
 -0.0086503775345403  0.3613844853158723  0.5573744562773637
  0.2490202138375672  0.6523754947240462  0.5498725136007742
  0.2319048919472868  0.2292192265907219  0.8176836680356036
  0.4892716277322139  0.6390707823155320  0.8159993929648108
  0.5104541082853241  0.2532124556025601  0.5852479156885266
  0.7344153483947632  0.8064688857759693  0.5701440216558640
  0.7885630046326869  0.2685128288081012  0.8319374007665166
  1.0318970924134847  0.6608889102033201  0.7920740333010841
  0.2625627155517264  0.3549127007753028  0.0454617796950543
 -0.0037962310572114  0.7024467093468545  0.0542723722533184
  0.5038266419151278  0.3367471485566496  0.3538876780776656
  0.2268905515352457  0.6273501864709782  0.3048483772558711
  0.7467907830939504  0.3434218308046286  0.0715962868537544
  0.4835266063201354  0.6218330814686949  0.0582938019833640
  1.0084213414635812  0.3103127960424232  0.3040208871871224
  0.7471137366588416  0.6676663607264464  0.3215526003679724
  0.2661854598869091  0.3210023009358207  0.5762091663731673
 -0.0113715727855472  0.6371985360954796  0.5546987444990411
  0.4990529590125943  0.2157258182528101  0.8400188473002532
  0.2533026653598718  0.5899617350558215  0.7952521379191052
  0.7183851837635685  0.3683503945038789  0.6251370656559917
  0.4699578521997062  0.7130621310601909  0.5596258799348198
  1.0108227007274391  0.3482470240846237  0.8165638821778550
  0.7495351049073921  0.7035153094707278  0.7852980716315493
  0.5081880093232752  0.1007453235986726  0.0926304981288862
  0.2581286576896862  0.9168694227662432  0.0875806237142362
  0.2481174828253383  0.1525132624071651  0.2499918112262568
  0.0023281628143210  0.9109334032985839  0.3474553918101822
  1.0218302713107641  0.0543394960618758  0.1031918185594550
  0.7520966579413336  0.9125476893787247  0.0691025588251204
  0.7623045042943325  0.1078227459012487  0.3226335983236019
  0.5072212320905787  0.9191247847177095  0.2808290464299406
  0.5665389731606002 -0.0051855942119700  0.6677007222780531
  0.2315151999016695  0.8613435446644596  0.5598590757444748
  0.2788698463632758  0.0569915810770956  0.7548440229475993
  0.0443644764169432  0.8736652060601834  0.8138611057594741
  1.0222547686487014  0.1543717790987440  0.5640990304998500
  0.8525470801101535  0.9677024200519566  0.5891165215404638
  0.8353500366312590  0.0779318060614460  0.9019046036526709
  0.4294217029208473  0.8346845930600094  0.8674910576354543
