Li Mg Bi  S  O 
 1.0000000000000000
    11.1784999999999997    0.0000000000000000    0.0000000000000000
     0.0000000000000000    9.5746000000000002    0.0000000000000000
     0.0000000000000000    0.0000000000000000   11.1823999999999995
 Li  Mg  Bi  S   O  
   2   7  16  16  16
Direct
  0.3521161611888917  0.0045912050329066  0.1669575037860269
  0.6195601406294886  0.9982287389802234  0.2021984168453218
  0.3920010005425900  0.0027528847411231  0.4377237310486772
  0.8760862555866332  0.0049023775851117  0.4357929259770266
  0.8811666981809827 -0.0042891440310000  0.1630527070185475
  0.1236738843819091  1.0037783488256977  0.9323807549787427
  0.3796468076541437  0.0039925964465509  0.7098370531153799
  0.6303198808626569  0.9984681968771907  0.9341539530124983
  0.8784869394141703  0.0046453779564948  0.7080566201604961
  0.0031716264001669  0.3066883930727747  0.0622119962149345
  0.2477488385595587  0.7044782208768641  0.0609704132097165
  0.2526632664980303  0.3003834776158327  0.3146173758270081
  0.5004028136478788  0.6954327109626816  0.3132987314517989
  0.5050430840789062  0.3008087386244994  0.0669174064050453
  0.7493731920268853  0.6866501868290008  0.0650794776047449
  0.7524978976396876  0.3085512014879493  0.3137001209137613
  1.0022182733772169  0.6912708623099489  0.3115948018187246
 -0.0017978920281399  0.3166298998914608  0.5661364783746461
  0.2621366495174586  0.6922993562451047  0.5627278169335025
  0.2499232829626344  0.3087681465458672  0.8152738341969826
  0.5028269528256484  0.6948925599663506  0.8159495694954406
  0.4950328611326584  0.3190290672074339  0.5653353396679436
  0.7614824900302907  0.6941082071239539  0.5626577058097343
  0.7488139324621585  0.3076698540460671  0.8132633524300691
  1.0041058350648171  0.6949086156623652  0.8116903064240102
  0.2505245416537162  0.3399145787580044  0.0618496294228117
  0.0064323756614488  0.6602021363958783  0.0650997259184212
  0.5052935455440813  0.3454921609465253  0.3130991103611884
  0.2528169188124635  0.6645562882092390  0.3179982752183898
  0.7518728678066408  0.3535386089807408  0.0622537910689922
  0.5018899873871918  0.6523840840834487  0.0641917737122053
  1.0001453519056147  0.3428090464771614  0.3107012760603687
  0.7527932047460090  0.6446961245787831  0.3114877067860738
  0.2505322102592206  0.3528310522844190  0.5661443616185253
  0.0019101579024856  0.6511145386697366  0.5652270075219367
  0.5017209313442805  0.3406119259549532  0.8183811445016693
  0.2502650649509403  0.6582112359950049  0.8140440054533178
  0.7512331820931113  0.3530227217127322  0.5664745880452268
  0.5037848437249323  0.6476356864521093  0.5664970414458683
  1.0007242647479002  0.3451958769496475  0.8166523802324921
  0.7532954060884635  0.6620773863711001  0.8197395894398474
  0.5303420901805791  0.0859238426225491  0.0667535571563807
  0.2400034754163691  0.9173819569009860  0.0499077318640135
  0.2920993034683101  0.0935625544865917  0.3134681381499744
 -0.0415646484173384  0.9021565376296919  0.3055898251817238
  1.0006964488787127  0.0874076705569038  0.0524179395686551
  0.7391103318720639  0.9110619508982971  0.0716366378538519
  0.7763401474400605  0.0887990594052710  0.2963549608432531
  0.4955095326178448  0.9121498395404743  0.3109420423508825
  0.4680327803672194  0.1056506193214133  0.5758865122391036
  0.3046349433387907  0.9026412941660349  0.5687904764580184
  0.2477440963124106  0.0898712086586882  0.8142034949213500
  0.0018682008304718  0.9144182549023883  0.8176972313932461
  0.9634833501760689  0.1040727809858002  0.5691385903918356
  0.7940553433472267  0.9076807768460894  0.5695676969570767
  0.7518781589308818  0.0883159072642597  0.8203478228656600
  0.5038404496838449  0.9138161477266000  0.8208264207434370
