Li Mg Bi  S  O 
 1.0000000000000000
    11.1784999999999997    0.0000000000000000    0.0000000000000000
     0.0000000000000000    9.5746000000000002    0.0000000000000000
     0.0000000000000000    0.0000000000000000   11.1823999999999995
 Li  Mg  Bi  S   O  
  10   3  16  16  16
Direct
  0.3449922868258184  0.0281728330333390  0.5113509733133099
  0.1119421643124255  1.0110743253932042  0.2221680629679466
  0.3780146656106803  0.0018414649825464  0.1893070946934929
  0.6174680948622202  0.9989131672104099  0.4357580625749605
  0.6333713643627227  0.9972175457504588  0.1906537430370443
  0.8747375888898066 -0.0010535195785179  0.1848419001781430
  0.1184002368014219  0.9961090731605358  0.9536278443472606
  0.6271396452372059  0.9982500533021694  0.9401841063607902
  0.8738189930607431 -0.0016586363134548  0.8876367507878934
  0.6179457137172583  1.0071915124455726  0.6860250325405179
  0.8813728002729755  0.0015880609853254  0.4478574453006762
  0.3714017831218505  0.0029890771092117  0.9215191989218731
  0.1163985983189929  1.0045749434151601  0.6907584440263013
 -0.0002611420058704  0.2951949269846171  0.0665591552824967
  0.2523091852419512  0.6949377357867341  0.0584252238665670
  0.2531143609041016  0.2970917429797196  0.3075537226525760
  0.5008015626436728  0.7068748952685432  0.3091231984334004
  0.4981268384064711  0.3053194584191176  0.0592637996216592
  0.7499320019266009  0.7058998770722109  0.0623941869276455
  0.7516328248387169  0.3077770738684616  0.3132692019056503
  0.9996705185587414  0.6974487784491145  0.3111344062422959
 -0.0019284617801206  0.3056231884686300  0.5641987331987872
  0.2482920045053995  0.7005433632568134  0.5639540454161283
  0.2459095788552738  0.3107993464107932  0.8142052264855155
  0.5029171016828698  0.6975427392907888  0.8094490148820739
  0.5001183563099122  0.3023271947199377  0.5569243312161837
  0.7474874946798850  0.6983585577602770  0.5575862534985584
  0.7446320770281081  0.2965328217869259  0.8124373537176034
  0.9995213240707113  0.6944131392580258  0.8132196873467543
  0.2490234601297643  0.3518515253917204  0.0613415957231889
 -0.0002578764446876  0.6573652068510408  0.0626837575371935
  0.5022540389945516  0.3449440383414472  0.3105383215526189
  0.2502994332111372  0.6754607111997234  0.3116662319125859
  0.7505557229366928  0.3416225336697334  0.0618154666135867
  0.4991511813707930  0.6480802538032767  0.0579843619177035
  1.0005285708508500  0.3428104214861944  0.3160557036502691
  0.7513018638623931  0.6433062016215894  0.3128599116304420
  0.2507808348598387  0.3057086277692933  0.5570091206910367
  0.0007655311441908  0.6618301988839123  0.5630976109327636
  0.4954649539419804  0.3427938046910284  0.8125621984207668
  0.2463226121779967  0.6437034838315929  0.8116918204160413
  0.7495380257733206  0.3455782476113112  0.5639033880892246
  0.4986262644089384  0.6644682370141157  0.5610164292703477
  1.0023348672547392  0.3400911148223342  0.8120160121518309
  0.7512216396656909  0.6668575618513285  0.8118170000674654
  0.4866960291131542  0.0850560780092375  0.0476326704684602
  0.2635826485145055  0.9128219182454888  0.0430320350185051
  0.2577390822855352  0.0856462357359592  0.2912581546245258
 -0.0226261045961816  0.9149093788710477  0.3126396994121269
  1.0060322352116231  0.0792807459716315  0.0750395009521078
  0.7444924739102990  0.9223678175075822  0.0687343136844636
  0.7633458082285103  0.0870633626344613  0.3201912829601803
  0.5173707946715258  0.9198715484682236  0.2960757487631653
  0.5102021757506537  0.0876796323973826  0.5547834233332773
  0.2369799586211425  0.9120387002916714  0.5889757277652294
  0.2315841201399522  0.0876788024066654  0.8260745688650041
  0.0161776512509063  0.9125799753938129  0.8200322429200761
  0.9953799180361977  0.0867596667104302  0.5692000045225221
  0.7444440967658790  0.9137644894253557  0.5367437518439376
  0.7329014687543320  0.0828462776538037  0.8196006555989713
  0.5039414580188171  0.9137632229648973  0.8291251269311655
