Li Mg Bi  S  O 
 1.0000000000000000
    11.1784999999999997    0.0000000000000000    0.0000000000000000
     0.0000000000000000    9.5746000000000002    0.0000000000000000
     0.0000000000000000    0.0000000000000000   11.1823999999999995
 Li  Mg  Bi  S   O  
   8   4  16  16  16
Direct
  0.2190767127283198 -0.0295332251399750  0.4664793583224401
  0.5197501882797270  0.8999780673299087  0.4391700861340386
  0.0608400268072248  0.8891584475972785  1.0125527673790147
  0.3492231900123983 -0.0078389098008348  1.0225171144891985
  0.3553096622301224 -0.0369137363506072  0.6500654170132800
  0.4824484916737359  1.0383808026003751  0.8480986961528897
  0.6927607751845183 -0.0380356516224713  0.8908582137225699
  0.7093072057300677  1.0028979419550659  0.6397599916041448
  0.1220022184378329  0.9206065406820233  0.2397923481626239
  0.9427632434223898 -0.1053731363536741  0.5181863814445310
  0.6403566565245343  0.9922991170974449  0.1871336902062334
  0.0889611729251671  0.9678515616012023  0.7061013940112018
  0.0428157147549210  0.2017161947819838  0.0197439418529792
  0.2130277606348358  0.6079478152697020  0.0670131289524208
  0.2182372315921991  0.2586752073816252  0.3090165658868600
  0.4893642337794753  0.6634993524803885  0.2696885962141290
  0.5004944799203214  0.3301239228071514  0.0544241037984505
  0.7372741258014658  0.6794475801278567  0.0449085996012475
  0.7768050586047913  0.2881792020118650  0.2611234856766236
  0.9782611200646052  0.6356390780028225  0.3183881154652897
 -0.0506760827545855  0.2428226363768432  0.5641017724724416
  0.2217244223539352  0.6835150232369996  0.5560837065347053
  0.2626405445243694  0.2247137824800671  0.7639279627884159
  0.4775128129535609  0.6775186768651912  0.8053095712482794
  0.4756811370495124  0.3266686339612203  0.5231928994795543
  0.7469889398974615  0.6474253344608257  0.5271043145140326
  0.7060697760380633  0.2978120461432136  0.7806844978176043
  0.9811085993717467  0.6420426052673875  0.8139285954381130
  0.2341981271980657  0.3389640789715070  0.0880805184769374
 -0.0084707817799791  0.6452893158057973  0.0524272807811935
  0.5141138585798603  0.2236883839968377  0.2720759187396283
  0.2497164156917519  0.7251520333681392  0.3279412451954048
  0.7666393483450564  0.3285502606834618  0.0249517614972401
  0.4459724945266879  0.6177906527352977  0.0476050171827573
  0.9969140480036374  0.3005598360616838  0.3404374801620039
  0.7363945002051393  0.6067727861196079  0.2824053774338459
  0.2383999522589912  0.3109924156673752  0.5398330744305890
 -0.0233969987995787  0.6332897464708752  0.5546137611895460
  0.4874959892610480  0.3548183567418596  0.8177787922858056
  0.2046363095325135  0.5523021258605401  0.8040054885730935
  0.7111887182458957  0.3037727626748989  0.5245835672098658
  0.4809318621732626  0.6018176060151926  0.5369803310144057
  1.0000705406261390  0.2050539449725994  0.7885988965570744
  0.7410925368421482  0.6561360859488611  0.8032026353267576
  0.4835347390236086  0.1193747546402451  0.0208696244337194
  0.2330343892602180  0.8456213041939058  0.0584394177192995
  0.2298843771097299  0.0489595265934511  0.3222661477709281
 -0.0059012991984145  0.8670069195211929  0.3472576423056128
  1.0935117359896320  0.0445360539397499  0.1193956366803778
  0.7059533456931549  0.8904196411300619  0.0455476202508827
  0.7797952422171335  0.0818807499847238  0.2514267833918295
  0.5340753823807772  0.8683420895720100  0.2776239545280440
  0.4551708492728627  0.1251769200386240  0.5247753774739966
  0.2053592350166394  0.8861319702283110  0.5925338406934292
  0.3189909307509231  0.0576731428864161  0.8261963291938025
  0.0187604665069442  0.8495825723135193  0.8269102972226059
  0.8711630249892692  0.0543351924235647  0.5931313483404678
  0.7085852145858141  0.8628259796064631  0.5294513186125982
  0.6757027423419699  0.0886650639815115  0.7793254559073134
  0.4894345331777820  0.8808271415722465  0.7594601546445081
