Li12 Mg2 Bi16 S16 O16                   
   1.00000000000000     
    11.1882099041237755    0.0615731061383080   -0.0096244697137342
     0.0526767676048151    9.4941372616374924   -0.0353723822025714
    -0.0101780126255633   -0.0413525762527908   11.1700499779387776
   Li   Mg   Bi   S    O 
    12     2    16    16    16
Direct
  0.1370685654118347 -0.0223405780984595  0.3119518746599051
  0.3927121176627198  0.0092021396024996  0.2010873603502630
  0.6242122939873681  0.0047626657809536  0.4309044792614272
  0.8756068121369324 -0.0033157787821983  0.4419596818767089
  0.6323076466213572  0.0022466451125641  0.1878115314046937
  0.8777934600988113 -0.0003018691635007  0.1896835032366365
  0.3840938720089875 -0.0088350248113438  0.9383093456162689
  0.3801453029267495  0.0004577747364816  0.5699888222487697
  0.6230470947044495  0.0010018883589371  0.9394652591238188
  0.8618512080445799  0.0067369689330059  0.9415100995354467
  0.6196787299809066  0.0029819939562519  0.6898493551641043
  0.8608747475395325  0.0039089917193886  0.6866618347950185
  0.1191115953460112 -0.0047665760060752  0.9505113422700532
  0.1204639195221879  0.0026441098797559  0.6868648152866343
 -0.0035122216024071  0.3049218326063417  0.0638690445934020
  0.2531387312435994  0.6885113098379277  0.0598368870110450
  0.2534114305538391  0.3024665772431878  0.3108035703910533
  0.5016044535057612  0.7066331257070821  0.3089926358261543
  0.4989980343702797  0.3006397677337027  0.0630162115177381
  0.7492105022504018  0.7027999360400656  0.0614817423932459
  0.7493847387793301  0.3024828884842890  0.3126768417657316
 -0.0053475362626284  0.6954164013240237  0.3116336755263460
 -0.0020272203366149  0.3023835049921146  0.5647251034729460
  0.2480922692163469  0.6874335251823307  0.5614888249834153
  0.2456541171711491  0.3102916711058476  0.8127676758052399
  0.5031118335863070  0.7033857262048809  0.8127727091446892
  0.5043216458474886  0.3050795935936060  0.5620012712290137
  0.7488190434331160  0.7010931716470078  0.5603586263043370
  0.7465256252159002  0.3013123436181661  0.8130692302385475
  0.0014241747338157  0.6845177433775447  0.8116605029652711
  0.2492938954890408  0.3456840065880091  0.0607088958472409
 -0.0004369224804779  0.6632417622905212  0.0593648390395647
  0.5006967733414583  0.3516399746894240  0.3120438787383564
  0.2449152583664890  0.7203402695454777  0.3094249254002161
  0.7509411113102408  0.3484174832664615  0.0609982873767280
  0.5000493765097427  0.6485827165064464  0.0600495705957591
  0.0005257701040517  0.3288373054453252  0.3115578760755697
  0.7480272980568327  0.6485076111748441  0.3101784576678539
  0.2517945822476206  0.2746058178393918  0.5648110646227137
 -0.0006489983639970  0.6517194412179262  0.5607281819737406
  0.5013575542999136  0.3369590344763977  0.8120304417256403
  0.2471589913357256  0.6388620661876259  0.8079905605880406
  0.7523736628995842  0.3523300911739895  0.5623241032937648
  0.4977834521501904  0.6820115315357216  0.5606721384581416
 -0.0002648808728930  0.3588465294370649  0.8117134056455587
  0.7486925275121670  0.6559726639756344  0.8106901720238850
  0.5020479050311436  0.0816023869181001  0.0635617302412718
  0.2565832457166384  0.9040568846918862  0.0299226839755112
  0.2637680838276791  0.0931211447105259  0.2862575942668607
 -0.0224612978576285  0.9120352644317352  0.3150681380573678
 -0.0122060717339240  0.0851553132357483  0.0453231702376139
  0.7496032493003552  0.9225239798203480  0.0621772027687669
  0.7508622127098312  0.0839251781938722  0.3118676712090503
  0.5228048202265673  0.9196671409464663  0.2981367020116811
  0.5269614208871463  0.0901094696681547  0.5610359239934631
  0.2388489400268592  0.9005799791617528  0.5896514259617548
  0.2133811693270554  0.0915591107727600  0.8244544715775163
  0.0133411273366903  0.9116264054280936  0.8155270721070164
  0.9855175781527444  0.0846904895293654  0.5889095871551591
  0.7534355474982413  0.9194104671959542  0.5622418075768042
  0.7509040965388946  0.0807742726653217  0.8139371290013641
  0.5117915334078965  0.9189217373632449  0.8252670327881277
 
  0.00000000E+00  0.00000000E+00  0.00000000E+00
  0.00000000E+00  0.00000000E+00  0.00000000E+00
  0.00000000E+00  0.00000000E+00  0.00000000E+00
  0.00000000E+00  0.00000000E+00  0.00000000E+00
  0.00000000E+00  0.00000000E+00  0.00000000E+00
  0.00000000E+00  0.00000000E+00  0.00000000E+00
  0.00000000E+00  0.00000000E+00  0.00000000E+00
  0.00000000E+00  0.00000000E+00  0.00000000E+00
  0.00000000E+00  0.00000000E+00  0.00000000E+00
  0.00000000E+00  0.00000000E+00  0.00000000E+00
  0.00000000E+00  0.00000000E+00  0.00000000E+00
  0.00000000E+00  0.00000000E+00  0.00000000E+00
  0.00000000E+00  0.00000000E+00  0.00000000E+00
  0.00000000E+00  0.00000000E+00  0.00000000E+00
  0.00000000E+00  0.00000000E+00  0.00000000E+00
  0.00000000E+00  0.00000000E+00  0.00000000E+00
  0.00000000E+00  0.00000000E+00  0.00000000E+00
  0.00000000E+00  0.00000000E+00  0.00000000E+00
  0.00000000E+00  0.00000000E+00  0.00000000E+00
  0.00000000E+00  0.00000000E+00  0.00000000E+00
  0.00000000E+00  0.00000000E+00  0.00000000E+00
  0.00000000E+00  0.00000000E+00  0.00000000E+00
  0.00000000E+00  0.00000000E+00  0.00000000E+00
  0.00000000E+00  0.00000000E+00  0.00000000E+00
  0.00000000E+00  0.00000000E+00  0.00000000E+00
  0.00000000E+00  0.00000000E+00  0.00000000E+00
  0.00000000E+00  0.00000000E+00  0.00000000E+00
  0.00000000E+00  0.00000000E+00  0.00000000E+00
  0.00000000E+00  0.00000000E+00  0.00000000E+00
  0.00000000E+00  0.00000000E+00  0.00000000E+00
  0.00000000E+00  0.00000000E+00  0.00000000E+00
  0.00000000E+00  0.00000000E+00  0.00000000E+00
  0.00000000E+00  0.00000000E+00  0.00000000E+00
  0.00000000E+00  0.00000000E+00  0.00000000E+00
  0.00000000E+00  0.00000000E+00  0.00000000E+00
  0.00000000E+00  0.00000000E+00  0.00000000E+00
  0.00000000E+00  0.00000000E+00  0.00000000E+00
  0.00000000E+00  0.00000000E+00  0.00000000E+00
  0.00000000E+00  0.00000000E+00  0.00000000E+00
  0.00000000E+00  0.00000000E+00  0.00000000E+00
  0.00000000E+00  0.00000000E+00  0.00000000E+00
  0.00000000E+00  0.00000000E+00  0.00000000E+00
  0.00000000E+00  0.00000000E+00  0.00000000E+00
  0.00000000E+00  0.00000000E+00  0.00000000E+00
  0.00000000E+00  0.00000000E+00  0.00000000E+00
  0.00000000E+00  0.00000000E+00  0.00000000E+00
  0.00000000E+00  0.00000000E+00  0.00000000E+00
  0.00000000E+00  0.00000000E+00  0.00000000E+00
  0.00000000E+00  0.00000000E+00  0.00000000E+00
  0.00000000E+00  0.00000000E+00  0.00000000E+00
  0.00000000E+00  0.00000000E+00  0.00000000E+00
  0.00000000E+00  0.00000000E+00  0.00000000E+00
  0.00000000E+00  0.00000000E+00  0.00000000E+00
  0.00000000E+00  0.00000000E+00  0.00000000E+00
  0.00000000E+00  0.00000000E+00  0.00000000E+00
  0.00000000E+00  0.00000000E+00  0.00000000E+00
  0.00000000E+00  0.00000000E+00  0.00000000E+00
  0.00000000E+00  0.00000000E+00  0.00000000E+00
  0.00000000E+00  0.00000000E+00  0.00000000E+00
  0.00000000E+00  0.00000000E+00  0.00000000E+00
  0.00000000E+00  0.00000000E+00  0.00000000E+00
  0.00000000E+00  0.00000000E+00  0.00000000E+00
