Li8 Mg4 Bi16 S16 O16                    
   1.00000000000000     
    11.2305087096043046    0.0407057673612211   -0.0044366945253440
     0.0380981011022876    9.5707032347807637    0.0492318459114956
    -0.0045517193554247    0.0588102835416174   11.2031652120043415
   Li   Mg   Bi   S    O 
     8     4    16    16    16
Direct
  0.3237728866444791  0.0279052432622833  0.4682631112869610
  0.9675150749747929 -0.0065610319296176  0.4504294294417924
  0.9170383127839308 -0.0328609631449849  0.1482589649279808
  0.1424725274130408  0.0010495635105073  0.9516229966153774
  0.3942977238501901 -0.0013790959741377  0.9305182796060855
  0.3908081102270674 -0.0012641651468757  0.6853541837526334
  0.9104071047461963  0.0192948751539025  0.8898576204393674
  0.6785397576309145  0.9625321068316638  0.7253453979992349
  0.3643606625620210 -0.0091860254639880  0.1935768598309959
  0.5985790425146573 -0.0007696486215738  0.4369503098416061
  0.6296317758124768  0.0047742749203260  0.1737255054210151
  0.1301631423878173  0.9986664441502927  0.6955970238303166
 -0.0062910012303686  0.2924734906490621  0.0614553811028971
  0.2518819323941547  0.6990312952334440  0.0600374032535927
  0.2408397966822379  0.3050109823770099  0.3100936289155213
  0.4974019682802430  0.6792258533625659  0.3089454944153051
  0.4938562025169512  0.3085025306914516  0.0629505256387041
  0.7515506633100916  0.6940810134145031  0.0650760055632610
  0.7419321416419737  0.3114857212311697  0.3149381507051397
 -0.0039807465214327  0.6962043654766105  0.3122113677887051
 -0.0035730704880486  0.3052808533253085  0.5667446785959263
  0.2471536180430988  0.6994462489820847  0.5652944919218806
  0.2462545918921529  0.3100856395365881  0.8122479818020537
  0.4992594758030608  0.7005066827832913  0.8093792105552760
  0.4913802585951321  0.3075933323800644  0.5597077612010931
  0.7414197112566773  0.6943014634618792  0.5622030595504368
  0.7476133799317245  0.2924309602020214  0.8125955399948408
  0.0022626684482961  0.6949610129848937  0.8132466374251155
  0.2422096488983637  0.3450706269091528  0.0629808202748436
 -0.0048894483023725  0.6573020853973998  0.0639113031584848
  0.4851463552782693  0.3685055369538683  0.3113804680921585
  0.2523767017265917  0.7195472255380231  0.3085903400716070
  0.7402168808910869  0.3289267775094544  0.0654331975405937
  0.4948242682821999  0.6463114004004554  0.0621516483851457
  0.9874770146708131  0.2750504008244467  0.3147401965870165
  0.7463245257464504  0.6396781371634233  0.3136146043761268
  0.2402372565526595  0.3577172600709537  0.5608188584384366
 -0.0050724007346744  0.7172580401281818  0.5642480956097307
  0.4912071135400844  0.3178202293639376  0.8124714981145730
  0.2491466284541753  0.6413609339232237  0.8108057927767074
  0.7387939871185821  0.3305121716278790  0.5626427494613185
  0.4919632957389833  0.6441814569402975  0.5621576444690132
 -0.0076949010296703  0.3590124108897687  0.8120335385696352
  0.7481220788578929  0.7001392689717904  0.8111712909209544
  0.4872128176583828  0.0879405533994982  0.0873178508052671
  0.2783173041950005  0.9150547851678617  0.0487980192728860
  0.2807562300457794  0.0970533342626523  0.3155384405690221
 -0.0316450560989622  0.9031584415863021  0.3023957481747249
  0.9983024597795436  0.0825240166240529  0.0303185773634549
  0.7576654102196023  0.9054974586104851  0.0932403492869683
  0.6915673428477308  0.1018589771337259  0.3150910856420124
  0.5110760912238301  0.9073092989818243  0.2915463327296222
  0.4732845769145101  0.0903596383212883  0.5380663498330330
  0.2588630202317604  0.9142972217292027  0.5948168189870031
  0.2451023393797000  0.0903247644944260  0.8099966667156751
  0.0387853580595716  0.9073896234032980  0.8254878936731150
  0.0224742012916613  0.0948944948393174  0.5827035933512826
  0.6991709445347791  0.9032612934533548  0.5561286384278697
  0.7718261983125658  0.0850089593042714  0.8126929452344021
  0.4903040436115829  0.9132401524364114  0.8026816416642328
 
  0.00000000E+00  0.00000000E+00  0.00000000E+00
  0.00000000E+00  0.00000000E+00  0.00000000E+00
  0.00000000E+00  0.00000000E+00  0.00000000E+00
  0.00000000E+00  0.00000000E+00  0.00000000E+00
  0.00000000E+00  0.00000000E+00  0.00000000E+00
  0.00000000E+00  0.00000000E+00  0.00000000E+00
  0.00000000E+00  0.00000000E+00  0.00000000E+00
  0.00000000E+00  0.00000000E+00  0.00000000E+00
  0.00000000E+00  0.00000000E+00  0.00000000E+00
  0.00000000E+00  0.00000000E+00  0.00000000E+00
  0.00000000E+00  0.00000000E+00  0.00000000E+00
  0.00000000E+00  0.00000000E+00  0.00000000E+00
  0.00000000E+00  0.00000000E+00  0.00000000E+00
  0.00000000E+00  0.00000000E+00  0.00000000E+00
  0.00000000E+00  0.00000000E+00  0.00000000E+00
  0.00000000E+00  0.00000000E+00  0.00000000E+00
  0.00000000E+00  0.00000000E+00  0.00000000E+00
  0.00000000E+00  0.00000000E+00  0.00000000E+00
  0.00000000E+00  0.00000000E+00  0.00000000E+00
  0.00000000E+00  0.00000000E+00  0.00000000E+00
  0.00000000E+00  0.00000000E+00  0.00000000E+00
  0.00000000E+00  0.00000000E+00  0.00000000E+00
  0.00000000E+00  0.00000000E+00  0.00000000E+00
  0.00000000E+00  0.00000000E+00  0.00000000E+00
  0.00000000E+00  0.00000000E+00  0.00000000E+00
  0.00000000E+00  0.00000000E+00  0.00000000E+00
  0.00000000E+00  0.00000000E+00  0.00000000E+00
  0.00000000E+00  0.00000000E+00  0.00000000E+00
  0.00000000E+00  0.00000000E+00  0.00000000E+00
  0.00000000E+00  0.00000000E+00  0.00000000E+00
  0.00000000E+00  0.00000000E+00  0.00000000E+00
  0.00000000E+00  0.00000000E+00  0.00000000E+00
  0.00000000E+00  0.00000000E+00  0.00000000E+00
  0.00000000E+00  0.00000000E+00  0.00000000E+00
  0.00000000E+00  0.00000000E+00  0.00000000E+00
  0.00000000E+00  0.00000000E+00  0.00000000E+00
  0.00000000E+00  0.00000000E+00  0.00000000E+00
  0.00000000E+00  0.00000000E+00  0.00000000E+00
  0.00000000E+00  0.00000000E+00  0.00000000E+00
  0.00000000E+00  0.00000000E+00  0.00000000E+00
  0.00000000E+00  0.00000000E+00  0.00000000E+00
  0.00000000E+00  0.00000000E+00  0.00000000E+00
  0.00000000E+00  0.00000000E+00  0.00000000E+00
  0.00000000E+00  0.00000000E+00  0.00000000E+00
  0.00000000E+00  0.00000000E+00  0.00000000E+00
  0.00000000E+00  0.00000000E+00  0.00000000E+00
  0.00000000E+00  0.00000000E+00  0.00000000E+00
  0.00000000E+00  0.00000000E+00  0.00000000E+00
  0.00000000E+00  0.00000000E+00  0.00000000E+00
  0.00000000E+00  0.00000000E+00  0.00000000E+00
  0.00000000E+00  0.00000000E+00  0.00000000E+00
  0.00000000E+00  0.00000000E+00  0.00000000E+00
  0.00000000E+00  0.00000000E+00  0.00000000E+00
  0.00000000E+00  0.00000000E+00  0.00000000E+00
  0.00000000E+00  0.00000000E+00  0.00000000E+00
  0.00000000E+00  0.00000000E+00  0.00000000E+00
  0.00000000E+00  0.00000000E+00  0.00000000E+00
  0.00000000E+00  0.00000000E+00  0.00000000E+00
  0.00000000E+00  0.00000000E+00  0.00000000E+00
  0.00000000E+00  0.00000000E+00  0.00000000E+00
