Li8 Mg4 Bi16 S16 O16                    
   1.00000000000000     
    11.2143715104868935    0.0455125401339547   -0.0217034051278772
     0.0389872665921899    9.5522668636880006    0.0147474907047232
    -0.0212441905766311    0.0191113608083885   11.2429349656816466
   Li   Mg   Bi   S    O 
     8     4    16    16    16
Direct
  0.0853684994696211  0.0334305428015777  0.2297743922068498
  0.5825059279014803  0.0271287420250507  0.3860803178059188
  0.8579166340325766 -0.0122151334241472  0.4242799770389120
  0.8214944316872311 -0.0212498005362850  0.2035333971510435
  0.1491306836529151  0.0215598984894405  0.9782671446665072
  0.3656509653553010 -0.0020096803860880  0.9215548592972593
  0.4310155981668015 -0.0370885660385345  0.6467093235895747
  0.5967593419463144  0.9836657588322391  0.9591845685376215
  0.3741103124137904 -0.0018220704681378  0.1763608239003136
  0.1296956570228651  0.0057973451128196  0.7055336905420332
  0.8869782986850362  0.0005143966859250  0.9453838250476071
  0.8650599631304687  0.0054517966637180  0.6876896535967891
  0.0019178751272459  0.3125984447156212  0.0643410110222149
  0.2555702731543713  0.6889785408747587  0.0627069595618494
  0.2526819808280999  0.3008233614785846  0.3097956649632412
  0.4962961454991343  0.6990601704681141  0.3097606998661163
  0.4988303184525927  0.3031574854162579  0.0589057046007725
  0.7527991382803588  0.6910143210675016  0.0605931982193672
  0.7499691652822171  0.2995363544694589  0.3156244849669261
 -0.0041900243775696  0.7060768872462185  0.3091168265235580
  0.0072306743823537  0.3131141406385707  0.5668148422411232
  0.2547727754355925  0.7039990336948988  0.5682764102609631
  0.2525539845813480  0.3105780794245160  0.8151376632801214
  0.4986451794748620  0.6966226020578616  0.8133283122722667
  0.5051610023429524  0.2880483835393284  0.5590642439086279
  0.7545289458063387  0.6927216389512766  0.5601793460574379
  0.7532847384422886  0.3156653477663737  0.8139011239764903
  0.0008267879144235  0.6820317593233675  0.8092987910876329
  0.2551238742723491  0.3622894157613185  0.0638652531510834
  0.0014462267119071  0.6604621144618459  0.0620399514053670
  0.5037978378628055  0.3378723205535336  0.3104515023289845
  0.2509268313108439  0.6691779421003223  0.3083718673317764
  0.7571134458768488  0.3380584288814119  0.0626364610750289
  0.5038325678835456  0.6446347322079050  0.0619870591662972
  0.0046370678128936  0.3194318186484333  0.3114666547799641
  0.7533203117649206  0.6546625051332202  0.3100134820538324
  0.2535527533919241  0.3210690831774884  0.5678180702178545
  0.0057497306328323  0.6481776791269809  0.5640120325340895
  0.5056064059224722  0.3284516453179765  0.8124366156943569
  0.2528055761806997  0.6401646391413611  0.8112043198567509
  0.7575459981836639  0.3420530348894677  0.5652501933812918
  0.5029868840423217  0.6921268989012052  0.5636783633295954
  0.0047752873943303  0.3680776695326757  0.8144528954944857
  0.7552797539116554  0.6552175104694969  0.8114273313268827
  0.4742309115524815  0.0875945667776114  0.0489694135546980
  0.2698158139287599  0.9073315551334129  0.0522862051547944
  0.2452020342467386  0.0943670030448577  0.2634497609093422
 -0.0355023971841533  0.9177586650647748  0.2979551401902089
  0.0058356701114389  0.0906207284659024  0.0530193489921105
  0.7625045872301069  0.9108499461855104  0.0456771757513962
  0.7426662935424186  0.0853392305935333  0.3245895119910011
  0.4905673824246444  0.9103543922051169  0.2845277397852511
  0.5148721059257773  0.0799802530905648  0.5406058338325361
  0.2553107833102475  0.9097814538281134  0.6163908635895406
  0.2233022050180007  0.0938931079843430  0.8367677463630859
 -0.0111519875135947  0.9136979652340121  0.8067684395912293
  0.0011509694524486  0.0983367878119815  0.6085378622242241
  0.7895796917595064  0.9032044229743270  0.5608245055896802
  0.7871796745123522  0.0981947960686318  0.8234655730875591
  0.4893704344358002  0.9099679063423528  0.8264555700765917
 
  0.00000000E+00  0.00000000E+00  0.00000000E+00
  0.00000000E+00  0.00000000E+00  0.00000000E+00
  0.00000000E+00  0.00000000E+00  0.00000000E+00
  0.00000000E+00  0.00000000E+00  0.00000000E+00
  0.00000000E+00  0.00000000E+00  0.00000000E+00
  0.00000000E+00  0.00000000E+00  0.00000000E+00
  0.00000000E+00  0.00000000E+00  0.00000000E+00
  0.00000000E+00  0.00000000E+00  0.00000000E+00
  0.00000000E+00  0.00000000E+00  0.00000000E+00
  0.00000000E+00  0.00000000E+00  0.00000000E+00
  0.00000000E+00  0.00000000E+00  0.00000000E+00
  0.00000000E+00  0.00000000E+00  0.00000000E+00
  0.00000000E+00  0.00000000E+00  0.00000000E+00
  0.00000000E+00  0.00000000E+00  0.00000000E+00
  0.00000000E+00  0.00000000E+00  0.00000000E+00
  0.00000000E+00  0.00000000E+00  0.00000000E+00
  0.00000000E+00  0.00000000E+00  0.00000000E+00
  0.00000000E+00  0.00000000E+00  0.00000000E+00
  0.00000000E+00  0.00000000E+00  0.00000000E+00
  0.00000000E+00  0.00000000E+00  0.00000000E+00
  0.00000000E+00  0.00000000E+00  0.00000000E+00
  0.00000000E+00  0.00000000E+00  0.00000000E+00
  0.00000000E+00  0.00000000E+00  0.00000000E+00
  0.00000000E+00  0.00000000E+00  0.00000000E+00
  0.00000000E+00  0.00000000E+00  0.00000000E+00
  0.00000000E+00  0.00000000E+00  0.00000000E+00
  0.00000000E+00  0.00000000E+00  0.00000000E+00
  0.00000000E+00  0.00000000E+00  0.00000000E+00
  0.00000000E+00  0.00000000E+00  0.00000000E+00
  0.00000000E+00  0.00000000E+00  0.00000000E+00
  0.00000000E+00  0.00000000E+00  0.00000000E+00
  0.00000000E+00  0.00000000E+00  0.00000000E+00
  0.00000000E+00  0.00000000E+00  0.00000000E+00
  0.00000000E+00  0.00000000E+00  0.00000000E+00
  0.00000000E+00  0.00000000E+00  0.00000000E+00
  0.00000000E+00  0.00000000E+00  0.00000000E+00
  0.00000000E+00  0.00000000E+00  0.00000000E+00
  0.00000000E+00  0.00000000E+00  0.00000000E+00
  0.00000000E+00  0.00000000E+00  0.00000000E+00
  0.00000000E+00  0.00000000E+00  0.00000000E+00
  0.00000000E+00  0.00000000E+00  0.00000000E+00
  0.00000000E+00  0.00000000E+00  0.00000000E+00
  0.00000000E+00  0.00000000E+00  0.00000000E+00
  0.00000000E+00  0.00000000E+00  0.00000000E+00
  0.00000000E+00  0.00000000E+00  0.00000000E+00
  0.00000000E+00  0.00000000E+00  0.00000000E+00
  0.00000000E+00  0.00000000E+00  0.00000000E+00
  0.00000000E+00  0.00000000E+00  0.00000000E+00
  0.00000000E+00  0.00000000E+00  0.00000000E+00
  0.00000000E+00  0.00000000E+00  0.00000000E+00
  0.00000000E+00  0.00000000E+00  0.00000000E+00
  0.00000000E+00  0.00000000E+00  0.00000000E+00
  0.00000000E+00  0.00000000E+00  0.00000000E+00
  0.00000000E+00  0.00000000E+00  0.00000000E+00
  0.00000000E+00  0.00000000E+00  0.00000000E+00
  0.00000000E+00  0.00000000E+00  0.00000000E+00
  0.00000000E+00  0.00000000E+00  0.00000000E+00
  0.00000000E+00  0.00000000E+00  0.00000000E+00
  0.00000000E+00  0.00000000E+00  0.00000000E+00
  0.00000000E+00  0.00000000E+00  0.00000000E+00
