Li Mg Bi  S  O 
 1.0000000000000000
    11.1784999999999997    0.0000000000000000    0.0000000000000000
     0.0000000000000000    9.5746000000000002    0.0000000000000000
     0.0000000000000000    0.0000000000000000   11.1823999999999995
 Li  Mg  Bi  S   O  
   8   4  16  16  16
Direct
  0.3579526079746397 -0.0137220341447666  0.3616175493689787
  0.6307647265646816  1.0059911320438260  0.4226300208336315
  0.5699285618640592  0.9900610214082205  0.1592504659665832
  0.8533568528016630  0.0199164145917516  0.1741488194549036
  0.3956334844981003 -0.0029903381496877  0.6785754972403043
  0.5989125375683642  1.0136129813947963  0.9189436801294156
  0.8818777055835970  0.0211367938517698  0.8197452726455304
  0.6726354428745026  1.0328965897201394  0.6514241492746338
  0.1223866323643543  0.9960182234720854  0.1914824333776449
  0.8971499038707864  0.0086252664019047  0.4347891322893743
  0.3427867749547143  0.0038379853318561  0.9432315902561240
  0.1309638209810863  1.0141284051813140  0.6718363798030800
  0.0019278631430145  0.3082298863248409  0.0656125922728385
  0.2397648014057372  0.6929942235047792  0.0606330289269741
  0.2529767353073161  0.3060374705409800  0.3111455056904502
  0.4963745911914513  0.7030138476855107  0.3155059510370731
  0.4974172802438798  0.3093310837501203  0.0590818356090045
  0.7411288823143984  0.7235627061736770  0.0666486371674480
  0.7557649814131937  0.3161377087520738  0.3117633655342912
  0.9976580088681887  0.6913555013184917  0.3105338080326069
  0.0032485765070687  0.3193832046436993  0.5597050237725137
  0.2525694104053832  0.7011475208630407  0.5710421494330273
  0.2520745907056453  0.3126367805418369  0.8080904543270846
  0.4935100529601633  0.6959066903955747  0.8206850300850403
  0.5065935818459657  0.2991509165357419  0.5631942607619623
  0.7483257749577490  0.7106119367561684  0.5531268125200701
  0.7438358621467858  0.3115611980520835  0.8162362647689700
  0.9918828318953381  0.7027416169326972  0.8049186370972947
  0.2542483798756724  0.3466881535432257  0.0673915127392648
 -0.0036351288905310  0.6580514537180872  0.0658396430877235
  0.5049875151643016  0.3187043645541615  0.3131873034548402
  0.2462790807832700  0.7137009451076531  0.3129755797285718
  0.7513372440885403  0.3468567335333615  0.0626578569333651
  0.4908119615472361  0.6545288462810523  0.0654857844270396
  1.0015764427156377  0.3675864424340053  0.3165045676520585
  0.7446084721085955  0.6510489405853358  0.3140973296801632
  0.2541900807436436  0.3445410423527765  0.5633518094233498
 -0.0021909198205617  0.6573628404281509  0.5593724072174272
  0.4986631257974641  0.3630659252598050  0.8185385108174024
  0.2350806443667480  0.6411170316485383  0.8135350507232157
  0.7512794906650504  0.3564378689403137  0.5665538006057975
  0.4987914479478581  0.6615553998735424  0.5644282673507814
  0.9821094211621225  0.2646412420158235  0.8114600434371482
  0.7465414183297657  0.6978895038475664  0.8212950652814738
  0.4805250511643229  0.0940390497023166  0.0338847452114619
  0.2372450270685384  0.9121894609967603  0.0656752821323458
  0.2362443430320529  0.0947388433097730  0.2964999057330485
 -0.0144423355484851  0.9127888208562510  0.3005521013745683
  0.9986054138933174  0.0996241167633732  0.1033501134076606
  0.7172692639450674  0.9342820738058846  0.0778591650692503
  0.7744156792420576  0.0997498089017556  0.3278235449462403
  0.5140456732040989  0.9170536299444421  0.3132888167736591
  0.5233731757434359  0.0859296556085809  0.5727761094618568
  0.2620264529394714  0.9145376535403161  0.5883481744124239
  0.2575463137695432  0.0916491219164830  0.7990521460785683
  0.0118140070469096  0.9099441780188353  0.7716514492017175
  1.0127932303584544  0.1012535926787389  0.5465465013062036
  0.7599187005304020  0.9262092563757776  0.5319923703906697
  0.7228768691621812  0.0965160784520008  0.8098912928272032
  0.4632261987117499  0.9109663724335856  0.8325780228583926
