Li Mg Bi  S  O 
 1.0000000000000000
    11.1784999999999997    0.0000000000000000    0.0000000000000000
     0.0000000000000000    9.5746000000000002    0.0000000000000000
     0.0000000000000000    0.0000000000000000   11.1823999999999995
 Li  Mg  Bi  S   O  
  12   2  16  16  16
Direct
  0.3511600244694831  0.0059034109646409  0.4477393479788874
  0.1104429824810844  0.9983262946179036  0.1874589987722668
  0.6268290993776868  1.0003723204834882  0.4347537466116145
  0.8960754126366455 -0.0009601693774473  0.4376393297297292
  0.6337513687799943  1.0004624752453570  0.1862435112834035
  0.8718978080885578 -0.0015630009962224  0.1869605602257047
  0.3440721617297168 -0.0049434786216087  0.9230668220021729
  0.3809676573570873  0.0011733340690979  0.6863122201495060
  0.6272946613517558  1.0000634433197064  0.9395896379430457
  0.8976974727558003  0.0000971856934542  0.9332318451149377
  0.6257830184635735  1.0002688174515670  0.6865243124289692
  0.8691222039732495 -0.0013841351014864  0.6858035783440640
  0.3837034579832811  0.0012753755395742  0.1866262281574638
  0.1243169016285811  0.9995095431010381  0.6855225937560724
 -0.0039557033653799  0.2935910666985330  0.0638902302140710
  0.2507778226217788  0.6978800417830907  0.0639887958841640
  0.2509632466066604  0.3033590518990858  0.3105574430095797
  0.5021853524860627  0.6956505712444475  0.3105083949638249
  0.5012151924468036  0.3071637920043947  0.0617510080495285
  0.7515337296442033  0.7033315192185658  0.0610206540739434
  0.7496903992090160  0.2959279252389019  0.3129082304102929
  0.9975110807472373  0.7031841298714078  0.3102161600307591
 -0.0012510297574866  0.3008165385025776  0.5626047229297007
  0.2518072530308900  0.6966931498501678  0.5627526138270095
  0.2484932933872640  0.3046265034527445  0.8100996444780698
  0.5002744841187624  0.7067248012031511  0.8118359282434533
  0.4987739650558128  0.2957506152829548  0.5623132169816561
  0.7489402404798404  0.7053667134854110  0.5614324323186306
  0.7481429166126095  0.2935492809415284  0.8119493460817844
  0.9988707244308958  0.6971638452194688  0.8096812112537486
  0.2510772475678446  0.3389200870964212  0.0639615178925724
 -0.0000319848559738  0.6604578865759911  0.0619772899229833
  0.4999873688897278  0.3509598468137281  0.3125875324697987
  0.2515348467846511  0.6620565104402676  0.3126061073992861
  0.7482272375812906  0.3460282212702729  0.0618205379375801
  0.4992795036180673  0.6508601748416178  0.0616932502087720
  0.9990652630106043  0.3374228567784494  0.3127363345909425
  0.7486804432200218  0.6546155725207382  0.3119705751176234
  0.2483916115647174  0.3438234980072860  0.5626083959075151
 -0.0004755067761048  0.6579611946404468  0.5618006097253443
  0.4981066616914960  0.3434687781842059  0.8114850677984412
  0.2480452921534405  0.6579236976532969  0.8116737968607082
  0.7500028951501495  0.3437264397253024  0.5630916369374155
  0.4995213819346189  0.6583381796684514  0.5630915950215267
  0.9997270189802053  0.3391377369967907  0.8138179464997006
  0.7498742076299834  0.6562792860739729  0.8119450596238773
  0.5035275882617110  0.0866179001538338  0.0735602385849526
  0.2703266690193347  0.9142920513993498  0.0725584444615220
  0.2716112869156675  0.0873588574863500  0.3020019035544520
 -0.0140518303245296  0.9167102781899690  0.3002656111185992
  0.9852547452643196  0.0801227654393984  0.0732553771171752
  0.7453377607510626  0.9204618113144428  0.0621912590627202
  0.7463867313512115  0.0787454182130348  0.3119584915145828
  0.5024863904566862  0.9167946034309966  0.3016073188174494
  0.4985526243350109  0.0778002512912407  0.5591267905288025
  0.2558838010049569  0.9143999348323228  0.5816921531198508
  0.2526899988177824  0.0870825885619182  0.7908483762959537
 -0.0052473738507440  0.9145926134240772  0.7917488821354641
  0.9949792053872035  0.0833947619122135  0.5791690661469833
  0.7485149871756251  0.9229297654497463  0.5622025908035440
  0.7483850396185122  0.0761136428539315  0.8110478328464976
  0.4977852220509579  0.9244756537771240  0.8142193124667839
