Li Mg Bi  S  O 
 1.0000000000000000
    11.1784999999999997    0.0000000000000000    0.0000000000000000
     0.0000000000000000    9.5746000000000002    0.0000000000000000
     0.0000000000000000    0.0000000000000000   11.1823999999999995
 Li  Mg  Bi  S   O  
  12   2  16  16  16
Direct
  0.3798435887251966 -0.0015855292255070  0.4416050097897952
  0.3782246933873042  0.0042275385738147  0.1863721339426590
  0.6232920154448423  1.0004634846470419  0.2045853945295285
  0.8683645296745393  0.0018744932151056  0.1788538172557646
  0.1274644604800790  0.9994401618014974  0.9335179312191396
  0.3778327644353169  0.0034979446200140  0.9343911733934802
  0.1235045740619589  1.0009224260941627  0.6661447325224719
  0.3755727551105411  0.0006120029401472  0.6889043744384061
  0.6233506910675478  1.0001743083181169  0.9359636662803179
  0.8715333207489854 -0.0021760371320542  0.9340359704235695
  0.6252660951858653  1.0011630268056422  0.6695480283631808
  0.8738066995316064  0.0000964873505557  0.6916702446898517
  0.1212446673522121  0.9970493364372204  0.1968511759154954
  0.8762347183721855 -0.0024430061375253  0.4357551033110365
  0.0006078929188047  0.3032290771175544  0.0624049840641859
  0.2496745722947835  0.6954523335354460  0.0637463776002575
  0.2509196973744466  0.3031764542248806  0.3113499739042561
  0.4981737142432980  0.7080092240315932  0.3127568948254787
  0.4990696137369597  0.2965457496585660  0.0619120760346400
  0.7481071701415939  0.7047456147517663  0.0614783227636588
  0.7495786718003242  0.3009515681103421  0.3122906001336676
  0.9983140740315976  0.6907418176487411  0.3132868668668473
 -0.0026032582848858  0.3010073101328817  0.5650416264323354
  0.2525559102716338  0.7081767968471295  0.5651057222461787
  0.2500302875956917  0.2954120603908965  0.8115212153955882
  0.4998378310243072  0.7057811600918327  0.8125877987558359
  0.4966858160539692  0.2948545763496918  0.5632595040184851
  0.7507960364754683  0.6966898963999841  0.5630718735693913
  0.7482567669601622  0.2947610380378528  0.8126897175848898
  0.9997773810802540  0.7067576661609275  0.8127881566338866
  0.2486939405646610  0.3497182522670640  0.0629891724047177
 -0.0011913553259355  0.6537170213509473  0.0643874855896670
  0.5008222530206101  0.3361740000126626  0.3108321337001144
  0.2472558170136312  0.6621052365248938  0.3124131471163138
  0.7519660480521615  0.3411942122268347  0.0629299104604376
  0.4993822804912678  0.6575205800533989  0.0631446355241517
  1.0004055026907919  0.3430998714776948  0.3136407616435647
  0.7507200513721421  0.6604954552115339  0.3140136585194235
  0.2499277967591171  0.3358092448416837  0.5624184363207514
  0.0005263396884988  0.6601408893726817  0.5619977851742113
  0.5005488424287298  0.3463132880992413  0.8139755908711329
  0.2484591020283478  0.6572991632580608  0.8144048357686307
  0.7513723480813054  0.3404535850517635  0.5612118711129420
  0.5004093777839368  0.6610807208637144  0.5642354837697460
  1.0002044230306002  0.3411794387377770  0.8129175431978358
  0.7509037154836354  0.6573394587614034  0.8133924892751148
  0.4974420240271209  0.0789238472906846  0.0587645843160060
  0.2371933220063604  0.9172173696649206  0.0702228048136746
  0.2518388941195323  0.0876436294084719  0.2896910048581537
 -0.0137481442631298  0.9144383759367378  0.3002403199108697
  1.0073141355300410  0.0808280296095904  0.0713927317132365
  0.7508518623407813  0.9228621557678619  0.0598089753544048
  0.7703647900270811  0.0834047087996398  0.3070328682654118
  0.4872197853560923  0.9208652897381358  0.3006096968457656
  0.4898155602591753  0.0820933071789133  0.5768592341963661
  0.2614080456769391  0.9212069286154475  0.5743850086137090
  0.2516547380182358  0.0782670420246880  0.8186190058228497
 -0.0007437693810841  0.9245546207556903  0.8156731101795508
  0.9814789182736490  0.0831915904715222  0.5656216038759256
  0.7704962436022827  0.9133810435532697  0.5665961852957269
  0.7495615150505772  0.0771692942455891  0.8120167181495905
  0.5001164172992064  0.9227753961515324  0.8155656648984870
