Li Mg Bi  S  O 
 1.0000000000000000
    11.1784999999999997    0.0000000000000000    0.0000000000000000
     0.0000000000000000    9.5746000000000002    0.0000000000000000
     0.0000000000000000    0.0000000000000000   11.1823999999999995
 Li  Mg  Bi  S   O  
  12   2  16  16  16
Direct
  0.3529111858726505 -0.0042128987000203  0.4331403057261020
  0.1217257533508175  1.0015740817124805  0.2013425737141741
  0.3744349397809234 -0.0002536019015503  0.1837544075383610
  0.6175451830345202  1.0014205227039397  0.4327041250217581
  0.6247610513320743  0.9971046676986158  0.1878825805051911
  0.8767533848312253 -0.0022628486453054  0.1817845916876564
  0.1275311040408122  1.0004277926798850  0.9392708659947030
  0.3700370181487823  0.0030519124287773  0.9383989802150707
  0.1056228805054426  0.9938088185180080  0.6719429119424211
  0.3712135076036926  0.0018877837649409  0.6911237191643820
  0.6242762586765155  1.0015233428566253  0.9432539405038193
  0.8783978554330686  0.0019424277841370  0.9200497565759391
  0.8779353758219299 -0.0050233268711937  0.4447402706646822
  0.6358179982317345  0.9977644770705127  0.6858213288469498
  0.0009448401126454  0.2955694691207510  0.0633275975462939
  0.2506330686607409  0.7050225136792470  0.0621846852068423
  0.2520249112475921  0.2918732152189077  0.3120218320791905
  0.4993962558107660  0.7041244924814118  0.3113914795820826
  0.4993338270813545  0.2944617920452455  0.0639539099973282
  0.7508603265912357  0.7058099085850891  0.0633895454415269
  0.7518259000459764  0.3027697830514912  0.3145327329894307
  0.9997386451176736  0.6969721808951335  0.3118962890876265
  0.0023944789754884  0.2963162503605759  0.5647308337817301
  0.2514285023098187  0.7079181486799255  0.5635351671381389
  0.2503160415093892  0.2980958893807351  0.8141645477498944
  0.5006954034194898  0.6962308246042492  0.8107666579245606
  0.5011148521534112  0.3048187152147732  0.5648536281335833
  0.7512720704317561  0.6909430664144312  0.5622300082332272
  0.7492570493565094  0.3009446061921303  0.8169459237347281
  1.0042694704057076  0.7073681864571942  0.8149849519957607
  0.2510329917242218  0.3466999325506051  0.0636050288411765
 -0.0010578437229525  0.6541916107420934  0.0639013180961212
  0.5028105072115354  0.3400975972917619  0.3132550225461569
  0.2506497064411218  0.6676769749815401  0.3127126655995976
  0.7514929562462390  0.3410977507835501  0.0644440850036860
  0.5012795984666304  0.6597058243592813  0.0621365652369789
  0.9998613668381787  0.3400043976149775  0.3164812806514704
  0.7493257659924117  0.6487235209363391  0.3144043098556456
  0.2541511194223696  0.3337252852016087  0.5633247896206477
 -0.0008272109195810  0.6808673193702535  0.5618281937831414
  0.5035585258309221  0.3488843581575101  0.8139857713094533
  0.2511557739852904  0.6535870232868106  0.8124952818125794
  0.7497466307830062  0.3433046004509929  0.5652669630586071
  0.5018302348642899  0.6513318208396687  0.5629590387834269
  1.0008615783728907  0.3356917208514290  0.8135539929215303
  0.7506143498102622  0.6683507588667811  0.8111626368442404
  0.4995528496442216  0.0762249118229366  0.0602383115039362
  0.2520362036435301  0.9219831069817440  0.0599413332230053
  0.2614068870433258  0.0788385788445738  0.2973398831710839
 -0.0235257209288115  0.9135038579077868  0.3075227682628851
  1.0014755261996882  0.0784796002392086  0.0664971685384262
  0.7481763698332232  0.9236573907716356  0.0661360828128103
  0.7560564736131412  0.0809977492374015  0.3239323891360750
  0.5029765811335573  0.9221820648705625  0.3110681587473538
  0.5146710213799008  0.0841130422962037  0.5726777907414162
  0.2648020113238106  0.9207408891127419  0.5749788380060213
  0.2586549922746694  0.0818305689865489  0.8191195834437648
  0.0148630703773482  0.9204861628020630  0.8255671966959772
  0.9908695883700618  0.0833342913509747  0.5581720207674977
  0.7373001187368466  0.9143113097208406  0.5490652677188335
  0.7323555904879731  0.0830249485868062  0.8195002642311713
  0.5098342442086751  0.9174788170982829  0.8019747822684616
