Li Mg Bi  S  O 
 1.0000000000000000
    11.1784999999999997    0.0000000000000000    0.0000000000000000
     0.0000000000000000    9.5746000000000002    0.0000000000000000
     0.0000000000000000    0.0000000000000000   11.1823999999999995
 Li  Mg  Bi  S   O  
  10   3  16  16  16
Direct
  0.3320086004573685  0.0270263934566892  0.4809380250750452
  0.1323560207926306  1.0030137519999867  0.1844894814935558
  0.3790702132765060 -0.0048893333585773  0.1926603336915548
  0.6224279846611791  1.0006916992207258  0.4319480466812526
  0.6279627861118452  0.9962813428510783  0.1815922774796531
  0.8763492632318054 -0.0011637383974421  0.1835027722717675
  0.6279288366284878  0.9968265927461392  0.9369683649776887
  0.9130440663339452 -0.0012637718910049  0.9346877553362988
  0.5974057127725690  1.0101554104795676  0.6967715432887038
  0.8602671850323342 -0.0023244360383255  0.6881939948176231
  0.8903937235171643  0.0040810093231128  0.4379273069280971
  0.3645778877599198 -0.0012607837580992  0.9284757829318315
  0.1232271740797114  1.0072118983948490  0.6915618941080169
 -0.0015581598611285  0.2945065133807672  0.0641828556875438
  0.2535851244520637  0.6965256534244474  0.0618687855016712
  0.2544397185571352  0.2942417498377723  0.3079164787951845
  0.5029407338134375  0.7051605307630610  0.3091942643870322
  0.4994510743490838  0.3031894103766483  0.0584198763434561
  0.7519699418225602  0.7054485598956006  0.0609838553886160
  0.7525604961442351  0.3067853361054659  0.3123557519206706
  1.0028582558009005  0.6976520629727353  0.3084171875175022
  0.0001794174606389  0.3117323071042676  0.5626033105090108
  0.2511512040938317  0.7013529237037108  0.5631540152005957
  0.2477071391423484  0.3051665699507643  0.8128937770489121
  0.5034632567986081  0.6963885556132274  0.8116773114633742
  0.5027781364099545  0.2967487169230751  0.5578402334722988
  0.7515910178057119  0.6954612230828774  0.5561662544870607
  0.7476399556358175  0.2942674341421625  0.8106573986525143
  0.9970562984920882  0.6986731342023681  0.8064110306756149
  0.2518164027548289  0.3440653803577913  0.0604508052980586
  0.0013959526831735  0.6638404018989654  0.0609216985869483
  0.5029991012125682  0.3449223014257585  0.3107887472074141
  0.2528761009023154  0.6635443596991292  0.3123045666706619
  0.7503716988902911  0.3405970335008028  0.0614485932337504
  0.5010424168059311  0.6446296289523499  0.0577499110337425
  1.0027967886746423  0.3396170744132722  0.3138394401131077
  0.7523417011995412  0.6461984655791106  0.3123187297749410
  0.2513668199071680  0.3032335706282812  0.5598939941582730
  0.0018344285035582  0.6453679074852108  0.5626457052946421
  0.4976167681453831  0.3422565341656257  0.8095347195559593
  0.2502728637426306  0.6619781276047200  0.8104381573510054
  0.7524509817823535  0.3503311858090247  0.5617636400808557
  0.5024480564703615  0.6722580796875596  0.5617398045502970
  1.0017394195052121  0.3390334440813442  0.8124641133768388
  0.7520937039846217  0.6568934673814989  0.8114466629806115
  0.4917048578434953  0.0827000393912631  0.0470888273983213
  0.2732496392842081  0.9125241459988653  0.0657982899987851
  0.2629215590384543  0.0813665893515795  0.2986017708905377
 -0.0169945789201254  0.9137888472838761  0.3067670361402691
  0.9929375274451547  0.0806215023529540  0.0745470451860616
  0.7471571363309094  0.9225266193004673  0.0653337813885983
  0.7642462730587777  0.0860990158143488  0.3219274439485146
  0.5191344872582609  0.9183630359881882  0.2951828077713501
  0.5136011097894070  0.0832966978875452  0.5515311111191885
  0.2305476629656646  0.9127816322964298  0.5762161332133178
  0.2440565985690532  0.0858898449604538  0.8149937247119757
 -0.0095029122880758  0.9170511464691607  0.7900791786777800
  0.9863000751762512  0.0897000855565502  0.5763288603487949
  0.7670483884695674  0.9143433517278299  0.5452044147946963
  0.7397105516138572  0.0778013903370903  0.8042636424314316
  0.5020260375971098  0.9136565545725545  0.8318886363663681
