Li10 Mg3 Bi16 S16 O16                   
   1.00000000000000     
    11.1932805624443166    0.0256710363136099   -0.0064064805614231
     0.0225045901925847    9.4938922030628490    0.0886672637777716
    -0.0055651776912810    0.1053805374024736   11.1903876362795440
   Li   Mg   Bi   S    O 
    10     3    16    16    16
Direct
  0.3498011507948585 -0.0019495485855558  0.4299971610967064
  0.3719448984264939 -0.0020895319250993  0.1881081910035334
  0.6061790593215860  0.0120050047713611  0.4094947886773933
  0.9835057488878227  0.0388467835951666  0.4071399902568646
  0.8226236917509028 -0.0352715967907867  0.2176229696233992
  0.1154189060805470 -0.0065981116241618  0.1583931235620977
  0.3412177876559164  0.0097364740946939  0.9433469563946093
  0.3801802677112072  0.0021122819726258  0.6849052599975850
  0.5969876288325737  0.9708586837394904  0.9638673166797923
  0.6060169942842502  0.9859632991662050  0.6736932969133244
  0.1302619269904871  0.0023383790107196  0.6907784265123319
  0.8888993643950610 -0.0034194556455542  0.9337877506747709
  0.8661146567174066  0.0070996752109175  0.6712832635788499
  0.0026070822219481  0.3020204586225498  0.0594248173965830
  0.2538699023676542  0.6996431339857321  0.0629292521185319
  0.2544722999763876  0.3007908271735635  0.3054418489195481
  0.4963796827339269  0.7051753421340224  0.3099326057557787
  0.4978942289643693  0.2881461940979699  0.0587059013582212
  0.7516392534197999  0.6868047877057535  0.0574848532831870
  0.7483909934634372  0.2976137286121835  0.3106047161073075
  0.0009132461187593  0.7016454741648488  0.3015723865294582
  0.0037953074093267  0.3220192115965884  0.5597500180493868
  0.2529741476406870  0.6988261532302359  0.5604551330280196
  0.2573879678414702  0.3089228208164691  0.8075442189158157
  0.5016940574736929  0.6956741925700607  0.8087001755583445
  0.5009960689103533  0.3002970974990345  0.5581021496458450
  0.7475270930408539  0.6947322449948606  0.5584287081106244
  0.7555060043860483  0.3158484753698054  0.8118201009434453
  0.0023634525056095  0.6829756869603179  0.8062313162420768
  0.2550140774626449  0.3502956882771530  0.0590756630173956
  0.0022488275362625  0.6552807771076611  0.0538659292416901
  0.5029175335683801  0.3456577333770372  0.3135804912445023
  0.2477041356272152  0.6528169011128615  0.3081819696507778
  0.7554030934070584  0.3345643235069369  0.0599318637360230
  0.5047573687502606  0.6672830168285558  0.0549054238181978
  0.0015258198664061  0.3081018203911321  0.3174607092963944
  0.7499798162938294  0.6946456972821964  0.3052376873524029
  0.2528476659970036  0.3507230247874338  0.5623984635363617
  0.0020812076003742  0.6646627164738325  0.5564481636459975
  0.5048428777429297  0.3415677653702299  0.8126719629120941
  0.2506355760622980  0.6589926055902966  0.8057464203715959
  0.7560274750984580  0.3412152376370798  0.5634336883812762
  0.5027900307104315  0.6492919502278515  0.5575613941056816
  0.0054627337375477  0.3580273499500507  0.8122358148694946
  0.7541454348049873  0.6443977120438935  0.8061777133915121
  0.4748247694970846  0.0761005369439917  0.0457834880429297
  0.2544818587790902  0.9139307237059812  0.0722149931258650
  0.2595328499877144  0.0873444105492937  0.2984124993371786
 -0.0070530862997599  0.9157580267604902  0.2799674456765860
 -0.0016675692053455  0.0869912201981792  0.0453091073737235
  0.7626283663200435  0.9061516973657074  0.0356988508776827
  0.7454133114350657  0.0851743803669361  0.3262112770841230
  0.4750581211673306  0.9169756218777961  0.3262218722794815
  0.4964378647098104  0.0818209414445831  0.5593983018601852
  0.2529484528164405  0.9176111074582232  0.5804291928627821
  0.2558170076989368  0.0884956334670955  0.7936247520309324
 -0.0121902609630376  0.9137609382609438  0.7885774252685470
  0.0027327317805574  0.0935622180873596  0.5804077378200874
  0.7398616106769302  0.9104581893935982  0.5857490038255531
  0.7844481860622836  0.0939931201748959  0.8087298535338231
  0.5061692409473345  0.9141387474566769  0.8042741434957177
 
  0.00000000E+00  0.00000000E+00  0.00000000E+00
  0.00000000E+00  0.00000000E+00  0.00000000E+00
  0.00000000E+00  0.00000000E+00  0.00000000E+00
  0.00000000E+00  0.00000000E+00  0.00000000E+00
  0.00000000E+00  0.00000000E+00  0.00000000E+00
  0.00000000E+00  0.00000000E+00  0.00000000E+00
  0.00000000E+00  0.00000000E+00  0.00000000E+00
  0.00000000E+00  0.00000000E+00  0.00000000E+00
  0.00000000E+00  0.00000000E+00  0.00000000E+00
  0.00000000E+00  0.00000000E+00  0.00000000E+00
  0.00000000E+00  0.00000000E+00  0.00000000E+00
  0.00000000E+00  0.00000000E+00  0.00000000E+00
  0.00000000E+00  0.00000000E+00  0.00000000E+00
  0.00000000E+00  0.00000000E+00  0.00000000E+00
  0.00000000E+00  0.00000000E+00  0.00000000E+00
  0.00000000E+00  0.00000000E+00  0.00000000E+00
  0.00000000E+00  0.00000000E+00  0.00000000E+00
  0.00000000E+00  0.00000000E+00  0.00000000E+00
  0.00000000E+00  0.00000000E+00  0.00000000E+00
  0.00000000E+00  0.00000000E+00  0.00000000E+00
  0.00000000E+00  0.00000000E+00  0.00000000E+00
  0.00000000E+00  0.00000000E+00  0.00000000E+00
  0.00000000E+00  0.00000000E+00  0.00000000E+00
  0.00000000E+00  0.00000000E+00  0.00000000E+00
  0.00000000E+00  0.00000000E+00  0.00000000E+00
  0.00000000E+00  0.00000000E+00  0.00000000E+00
  0.00000000E+00  0.00000000E+00  0.00000000E+00
  0.00000000E+00  0.00000000E+00  0.00000000E+00
  0.00000000E+00  0.00000000E+00  0.00000000E+00
  0.00000000E+00  0.00000000E+00  0.00000000E+00
  0.00000000E+00  0.00000000E+00  0.00000000E+00
  0.00000000E+00  0.00000000E+00  0.00000000E+00
  0.00000000E+00  0.00000000E+00  0.00000000E+00
  0.00000000E+00  0.00000000E+00  0.00000000E+00
  0.00000000E+00  0.00000000E+00  0.00000000E+00
  0.00000000E+00  0.00000000E+00  0.00000000E+00
  0.00000000E+00  0.00000000E+00  0.00000000E+00
  0.00000000E+00  0.00000000E+00  0.00000000E+00
  0.00000000E+00  0.00000000E+00  0.00000000E+00
  0.00000000E+00  0.00000000E+00  0.00000000E+00
  0.00000000E+00  0.00000000E+00  0.00000000E+00
  0.00000000E+00  0.00000000E+00  0.00000000E+00
  0.00000000E+00  0.00000000E+00  0.00000000E+00
  0.00000000E+00  0.00000000E+00  0.00000000E+00
  0.00000000E+00  0.00000000E+00  0.00000000E+00
  0.00000000E+00  0.00000000E+00  0.00000000E+00
  0.00000000E+00  0.00000000E+00  0.00000000E+00
  0.00000000E+00  0.00000000E+00  0.00000000E+00
  0.00000000E+00  0.00000000E+00  0.00000000E+00
  0.00000000E+00  0.00000000E+00  0.00000000E+00
  0.00000000E+00  0.00000000E+00  0.00000000E+00
  0.00000000E+00  0.00000000E+00  0.00000000E+00
  0.00000000E+00  0.00000000E+00  0.00000000E+00
  0.00000000E+00  0.00000000E+00  0.00000000E+00
  0.00000000E+00  0.00000000E+00  0.00000000E+00
  0.00000000E+00  0.00000000E+00  0.00000000E+00
  0.00000000E+00  0.00000000E+00  0.00000000E+00
  0.00000000E+00  0.00000000E+00  0.00000000E+00
  0.00000000E+00  0.00000000E+00  0.00000000E+00
  0.00000000E+00  0.00000000E+00  0.00000000E+00
  0.00000000E+00  0.00000000E+00  0.00000000E+00
