Li Mg Bi  S  O 
 1.0000000000000000
    11.1784999999999997    0.0000000000000000    0.0000000000000000
     0.0000000000000000    9.5746000000000002    0.0000000000000000
     0.0000000000000000    0.0000000000000000   11.1823999999999995
 Li  Mg  Bi  S   O  
   4   6  16  16  16
Direct
  0.3567345081876775  0.0211175951310635  0.5818083736189129
  0.3686176914599025  0.0035514901173362  0.1855391207748047
  0.6401876125532073  1.0149610996539915  0.4450122786997187
  0.9932025404071887 -0.0236750967257850  0.4478840617044313
  0.1124375861676343  0.9909021229028362  0.1617703783713603
  0.6240826578056214  1.0040294315601666  0.1562921557506063
  0.3701204630253926 -0.0025247276050391  0.9298658634895974
  0.1118869457928442  0.9939721090813861  0.7221368881605041
  0.8684006609909298 -0.0050293898888943  0.9341889258783813
  0.6196976254518231  1.0040910195204196  0.7070945600020615
 -0.0019743548502245  0.3002161837938819  0.0590720301052530
  0.2443263196205141  0.6847444610220118  0.0602314436728914
  0.2428046196010307  0.3037051238926199  0.3056133828988141
  0.4973476609022448  0.6983336007038373  0.2965249316258474
  0.4942311840571576  0.3130692136270615  0.0582669148047050
  0.7462040416623843  0.6906205345105728  0.0602835105308443
  0.7420673899903799  0.3025789592350868  0.3043008417828025
  0.9980633973253361  0.6848441742579023  0.3102343250643820
  0.0005341585620245  0.2830504081016135  0.5646311659360503
  0.2357135369328151  0.6998663558620938  0.5639243279389184
  0.2506430925928674  0.3067912366621718  0.8092293565860461
  0.4924500598874086  0.6904276284639781  0.8071779831799973
  0.5010125254282690  0.3096195512556346  0.5471276306810617
  0.7364518082535949  0.6998694845238972  0.5612903092819141
  0.7473774197230968  0.3044273588597764  0.8059853466115523
  0.9885686385862491  0.6792595029720041  0.8103370783595556
  0.2521082662287293  0.3598068154576621  0.0570007397119903
 -0.0135215927086964  0.6457191919025768  0.0614007911921357
  0.4978255991409564  0.3565223604666287  0.3046756633400566
  0.2486886393951129  0.6557590605917710  0.3017299308986833
  0.7459665635284518  0.3394196952493463  0.0522334703769113
  0.4993220597722224  0.6417928852732504  0.0497088601348806
  0.9977454786653653  0.3334991509835973  0.3065668206684557
  0.7417929478480679  0.6650007529272703  0.3122243713014863
  0.2543387820362785  0.2962670529761201  0.5560104802034351
 -0.0057989753278215  0.6540777933161699  0.5634618410973362
  0.4999824503994476  0.3398699430266698  0.8064394408492558
  0.2498671225337073  0.6469915697441069  0.8095926148807916
  0.7550524590168034  0.3350909497356379  0.5573657878530217
  0.4903484414538760  0.6531375256235421  0.5603424110378307
  1.0058189510950384  0.3373723486336953  0.8156482888741615
  0.7473812018752154  0.6493543054795784  0.8066945385750134
  0.4823931518980947  0.0895772544829231  0.0563056311569500
  0.2575525038480004  0.9074743210664402  0.0584769740774733
  0.2326878446144300  0.0997773570369619  0.2535643155179174
  0.0220963193915376  0.8969466999907931  0.2956655898146154
  0.9929246039636584  0.0804286070276954  0.0499111827869420
  0.7452144150004383  0.9104228692846474  0.0497690744569041
  0.7026596096819387  0.0946182733572576  0.2969586250013114
  0.5036579633305840  0.9086335504714883  0.2609038974038972
  0.5177518685537856  0.0937775868008306  0.5738326736597097
  0.2218803995962901  0.9099165341842249  0.5946496114832979
  0.2480599018565922  0.0859687759524362  0.8185796247175205
 -0.0088321752223080  0.8973352682207195  0.8279260020760316
  1.0055009897854004  0.0714205720524369  0.5929185194200699
  0.7111986830791730  0.9102655543282375  0.5754044261055378
  0.7470673434884894  0.0863126579292122  0.8185770050721543
  0.4890915816443164  0.9110439081270434  0.8100389345601755
