Li6 Mg5 Bi16 S16 O16                    
   1.00000000000000     
    11.2247436171875759    0.0358047392454758    0.0131315472192531
     0.0311952371933175    9.6150106075501931   -0.0426837627915429
     0.0131284397832428   -0.0482305213299325   11.1711674729726482
   Li   Mg   Bi   S    O 
     6     5    16    16    16
Direct
  0.0914586452573304  0.0228497683247819  0.2102985043413736
  0.8892943749234764  0.0090303099546074  0.4275827360425581
  0.8503107574978325 -0.0013565161380301  0.1889380158776334
  0.0577155195512364  0.9681469565851744  0.6555730451425074
  0.3253764746960169  0.0456487949260279  0.6425329797421465
  0.6328649250918778  0.0020352213465320  0.9650554514704929
  0.3916713122278974  0.0029309631136254  0.1928066485536932
  0.6149254830280290  0.0058054259655928  0.4323788363662422
  0.3864607262441553 -0.0033087435429823  0.9253172836317985
  0.8852913820088307  0.0062035724099059  0.9286672780883880
  0.6355013477540663  0.0009538360981388  0.7037200779055076
 -0.0017316961674014  0.3055732004166183  0.0650485997132795
  0.2627025604433040  0.6879126523382655  0.0625768917282929
  0.2489044594148952  0.2992409419240319  0.3094877276873186
  0.4988514873664296  0.6965554136681713  0.3155455866910009
  0.5012493583915816  0.3117931559128712  0.0638769611366411
  0.7601825028381400  0.6965102674424655  0.0609474986148360
  0.7528305478842009  0.3023695781608879  0.3192999653437203
 -0.0019057173751496  0.7060146597641631  0.3104781066336724
  0.0002552389248949  0.2926772959981622  0.5627885947463160
  0.2414841087590766  0.7111954910527184  0.5661462260635235
  0.2566917311024340  0.3098211422486409  0.8130551829884285
  0.5065373192749487  0.6870293899799250  0.8151812818572188
  0.5032935465796854  0.3156031768429147  0.5669697478791230
  0.7463958571405748  0.6890566263131781  0.5613300061026949
  0.7562491672804261  0.3117800800564023  0.8171102260820261
  0.0032002028076572  0.6940272207949947  0.8134509222618969
  0.2600258012008340  0.3578905952357512  0.0595073353534072
  0.0026335647031562  0.6515222169947538  0.0639803320447472
  0.5043214742019873  0.3108371829265952  0.3131777865865498
  0.2554012883056708  0.6693824100105925  0.3114781894288841
  0.7565987065574494  0.3540839995100292  0.0606824266349724
  0.5068595723048598  0.6387426573038055  0.0668500850515259
  0.0037092256889505  0.3457725854094831  0.3125072334002597
  0.7519362741601808  0.6512424344827711  0.3158706037206901
  0.2585176859249130  0.2941690899636341  0.5608550904222802
  0.0003277562369419  0.6594442702563773  0.5648086371960321
  0.5088233518634953  0.3614624773456099  0.8135730668510223
  0.2596546990304854  0.6570864394132367  0.8141861297359169
  0.7529707106278497  0.3590796734685079  0.5611595098795228
  0.5006291609976102  0.6509813256315725  0.5655383846804543
  0.0040709135591103  0.3039486484315363  0.8157070112778927
  0.7561153345615342  0.6430851767390947  0.8153876092581722
  0.4883265995757625  0.0909434776428992  0.0525335901779934
  0.3092276494907909  0.8980845907748416  0.0595515687987592
  0.2470130383341564  0.0934694721363486  0.2606690918268803
 -0.0270046818826763  0.9159656651487448  0.2946876862374027
  0.9714755537623341  0.0915673685993718  0.0729357851030013
  0.7700264008383552  0.9121600856060844  0.0425971133000688
  0.7518628131492309  0.0863824223508809  0.3371646992680375
  0.5020845557890122  0.9149328540256807  0.3145588336389093
  0.5316722708630783  0.0974479669712030  0.5788686098902451
  0.2170412848205537  0.9147851126158452  0.5944717050729125
  0.2993833787343973  0.1022963736777013  0.8085718866105257
 -0.0146250352578312  0.9052101742303633  0.8114290493394927
  0.9739283973894881  0.0873387135929365  0.5537389861581717
  0.7099694580593611  0.9045048397495358  0.5606782010798014
  0.7398918816412930  0.0899796692706127  0.8323538631536986
  0.5256792918212131  0.9103201485257927  0.8294855161294660
 
  0.00000000E+00  0.00000000E+00  0.00000000E+00
  0.00000000E+00  0.00000000E+00  0.00000000E+00
  0.00000000E+00  0.00000000E+00  0.00000000E+00
  0.00000000E+00  0.00000000E+00  0.00000000E+00
  0.00000000E+00  0.00000000E+00  0.00000000E+00
  0.00000000E+00  0.00000000E+00  0.00000000E+00
  0.00000000E+00  0.00000000E+00  0.00000000E+00
  0.00000000E+00  0.00000000E+00  0.00000000E+00
  0.00000000E+00  0.00000000E+00  0.00000000E+00
  0.00000000E+00  0.00000000E+00  0.00000000E+00
  0.00000000E+00  0.00000000E+00  0.00000000E+00
  0.00000000E+00  0.00000000E+00  0.00000000E+00
  0.00000000E+00  0.00000000E+00  0.00000000E+00
  0.00000000E+00  0.00000000E+00  0.00000000E+00
  0.00000000E+00  0.00000000E+00  0.00000000E+00
  0.00000000E+00  0.00000000E+00  0.00000000E+00
  0.00000000E+00  0.00000000E+00  0.00000000E+00
  0.00000000E+00  0.00000000E+00  0.00000000E+00
  0.00000000E+00  0.00000000E+00  0.00000000E+00
  0.00000000E+00  0.00000000E+00  0.00000000E+00
  0.00000000E+00  0.00000000E+00  0.00000000E+00
  0.00000000E+00  0.00000000E+00  0.00000000E+00
  0.00000000E+00  0.00000000E+00  0.00000000E+00
  0.00000000E+00  0.00000000E+00  0.00000000E+00
  0.00000000E+00  0.00000000E+00  0.00000000E+00
  0.00000000E+00  0.00000000E+00  0.00000000E+00
  0.00000000E+00  0.00000000E+00  0.00000000E+00
  0.00000000E+00  0.00000000E+00  0.00000000E+00
  0.00000000E+00  0.00000000E+00  0.00000000E+00
  0.00000000E+00  0.00000000E+00  0.00000000E+00
  0.00000000E+00  0.00000000E+00  0.00000000E+00
  0.00000000E+00  0.00000000E+00  0.00000000E+00
  0.00000000E+00  0.00000000E+00  0.00000000E+00
  0.00000000E+00  0.00000000E+00  0.00000000E+00
  0.00000000E+00  0.00000000E+00  0.00000000E+00
  0.00000000E+00  0.00000000E+00  0.00000000E+00
  0.00000000E+00  0.00000000E+00  0.00000000E+00
  0.00000000E+00  0.00000000E+00  0.00000000E+00
  0.00000000E+00  0.00000000E+00  0.00000000E+00
  0.00000000E+00  0.00000000E+00  0.00000000E+00
  0.00000000E+00  0.00000000E+00  0.00000000E+00
  0.00000000E+00  0.00000000E+00  0.00000000E+00
  0.00000000E+00  0.00000000E+00  0.00000000E+00
  0.00000000E+00  0.00000000E+00  0.00000000E+00
  0.00000000E+00  0.00000000E+00  0.00000000E+00
  0.00000000E+00  0.00000000E+00  0.00000000E+00
  0.00000000E+00  0.00000000E+00  0.00000000E+00
  0.00000000E+00  0.00000000E+00  0.00000000E+00
  0.00000000E+00  0.00000000E+00  0.00000000E+00
  0.00000000E+00  0.00000000E+00  0.00000000E+00
  0.00000000E+00  0.00000000E+00  0.00000000E+00
  0.00000000E+00  0.00000000E+00  0.00000000E+00
  0.00000000E+00  0.00000000E+00  0.00000000E+00
  0.00000000E+00  0.00000000E+00  0.00000000E+00
  0.00000000E+00  0.00000000E+00  0.00000000E+00
  0.00000000E+00  0.00000000E+00  0.00000000E+00
  0.00000000E+00  0.00000000E+00  0.00000000E+00
  0.00000000E+00  0.00000000E+00  0.00000000E+00
  0.00000000E+00  0.00000000E+00  0.00000000E+00
