Li12 Mg2 Bi16 S16 O16                   
   1.00000000000000     
    11.1614664517574678   -0.0027236101312843    0.0000004123045856
    -0.0015077116220414    9.4432565548693201    0.0000592415862233
     0.0000011636056794    0.0000217150090639   11.1614648389772668
   Li   Mg   Bi   S    O 
    12     2    16    16    16
Direct
  0.3750409717318495  0.0000387162174718  0.4229720406482825
  0.1249995221671305  0.0000032748569884  0.2047470748939481
  0.3749931914498740 -0.0000022695500549  0.1836529868231350
  0.8750409717318498  0.0000387162174718  0.4229720406482825
  0.6249995221671305  0.0000032748569884  0.2047470748939481
  0.8749931914498742 -0.0000022695500549  0.1836529868231350
  0.1250034771052316  0.0000174571091555  0.9395815661444229
  0.3749945789460384  0.0000065747562817  0.9466848726000845
  0.1249724589664218  0.0000072049742962  0.6701659076863317
  0.6250034771052313  0.0000174571091555  0.9395815661444229
  0.8749945789460387  0.0000065747562817  0.9466848726000845
  0.6249724589664216  0.0000072049742962  0.6701659076863317
  0.3749718523916246  0.0000169369351205  0.6957475378692732
  0.8749718523916244  0.0000169369351205  0.6957475378692732
 -0.0003230792256327  0.3002885132771421  0.0640454086847369
  0.2503076544515254  0.6997154164954323  0.0640456103198435
  0.2514937385224922  0.2977611170111111  0.3103305177595195
  0.4984830059510392  0.7022363822894037  0.3103234778742494
  0.4996769207743673  0.3002885132771421  0.0640454086847369
  0.7503076544515249  0.6997154164954323  0.0640456103198435
  0.7514937385224923  0.2977611170111111  0.3103305177595195
 -0.0015169940489606  0.7022363822894037  0.3103234778742494
 -0.0004570645392621  0.3057260667004648  0.5619745311195758
  0.2504065938188949  0.6942979565277485  0.5619770730127446
  0.2505143095180513  0.3091907461675218  0.8135556176931299
  0.4994477846688488  0.6908381881623608  0.8135453359636915
  0.4995429354607381  0.3057260667004648  0.5619745311195758
  0.7504065938188947  0.6942979565277485  0.5619770730127446
  0.7505143095180512  0.3091907461675218  0.8135556176931299
 -0.0005522153311512  0.6908381881623608  0.8135453359636915
  0.2495355149645196  0.3475922563679232  0.0616953769695712
  0.0004512300141621  0.6524174536272785  0.0616816868579671
  0.4999198619013504  0.3402860914037367  0.3122343479040766
  0.2500503940160062  0.6597100589117475  0.3122245517269084
  0.7495355149645193  0.3475922563679232  0.0616953769695712
  0.5004512300141620  0.6524174536272785  0.0616816868579671
  0.9999198619013507  0.3402860914037367  0.3122343479040766
  0.7500503940160059  0.6597100589117475  0.3122245517269084
  0.2506419405471412  0.3412668603800033  0.5649222172605880
 -0.0006843899249023  0.6587437844623705  0.5649080252316445
  0.4987882853410882  0.3487897831831662  0.8123492540525221
  0.2511743066800033  0.6512107687340952  0.8123428884850710
  0.7506419405471413  0.3412668603800033  0.5649222172605880
  0.4993156100750976  0.6587437844623705  0.5649080252316445
  0.9987882853410880  0.3487897831831662  0.8123492540525221
  0.7511743066800038  0.6512107687340952  0.8123428884850710
  0.4998939787019830  0.0799462107766938  0.0575564703246332
  0.2501046946635144  0.9200596262572536  0.0575567605320438
  0.2622699512670905  0.0822725757877955  0.2975956418783136
 -0.0122715067427802  0.9177275124806402  0.2975902120258582
 -0.0001060212980169  0.0799462107766938  0.0575564703246332
  0.7501046946635141  0.9200596262572536  0.0575567605320438
  0.7622699512670902  0.0822725757877955  0.2975956418783136
  0.4877284932572197  0.9177275124806402  0.2975902120258582
  0.4875728289709686  0.0869328696965405  0.5818624627502506
  0.2623574693394448  0.9130741868057952  0.5819022105891571
  0.2554988379072648  0.0830616294519342  0.8117076588329362
 -0.0055423935709853  0.9169660497425662  0.8116906754855040
  0.9875728289709688  0.0869328696965405  0.5818624627502506
  0.7623574693394451  0.9130741868057952  0.5819022105891571
  0.7554988379072647  0.0830616294519342  0.8117076588329362
  0.4944576064290147  0.9169660497425662  0.8116906754855040
 
  0.00000000E+00  0.00000000E+00  0.00000000E+00
  0.00000000E+00  0.00000000E+00  0.00000000E+00
  0.00000000E+00  0.00000000E+00  0.00000000E+00
  0.00000000E+00  0.00000000E+00  0.00000000E+00
  0.00000000E+00  0.00000000E+00  0.00000000E+00
  0.00000000E+00  0.00000000E+00  0.00000000E+00
  0.00000000E+00  0.00000000E+00  0.00000000E+00
  0.00000000E+00  0.00000000E+00  0.00000000E+00
  0.00000000E+00  0.00000000E+00  0.00000000E+00
  0.00000000E+00  0.00000000E+00  0.00000000E+00
  0.00000000E+00  0.00000000E+00  0.00000000E+00
  0.00000000E+00  0.00000000E+00  0.00000000E+00
  0.00000000E+00  0.00000000E+00  0.00000000E+00
  0.00000000E+00  0.00000000E+00  0.00000000E+00
  0.00000000E+00  0.00000000E+00  0.00000000E+00
  0.00000000E+00  0.00000000E+00  0.00000000E+00
  0.00000000E+00  0.00000000E+00  0.00000000E+00
  0.00000000E+00  0.00000000E+00  0.00000000E+00
  0.00000000E+00  0.00000000E+00  0.00000000E+00
  0.00000000E+00  0.00000000E+00  0.00000000E+00
  0.00000000E+00  0.00000000E+00  0.00000000E+00
  0.00000000E+00  0.00000000E+00  0.00000000E+00
  0.00000000E+00  0.00000000E+00  0.00000000E+00
  0.00000000E+00  0.00000000E+00  0.00000000E+00
  0.00000000E+00  0.00000000E+00  0.00000000E+00
  0.00000000E+00  0.00000000E+00  0.00000000E+00
  0.00000000E+00  0.00000000E+00  0.00000000E+00
  0.00000000E+00  0.00000000E+00  0.00000000E+00
  0.00000000E+00  0.00000000E+00  0.00000000E+00
  0.00000000E+00  0.00000000E+00  0.00000000E+00
  0.00000000E+00  0.00000000E+00  0.00000000E+00
  0.00000000E+00  0.00000000E+00  0.00000000E+00
  0.00000000E+00  0.00000000E+00  0.00000000E+00
  0.00000000E+00  0.00000000E+00  0.00000000E+00
  0.00000000E+00  0.00000000E+00  0.00000000E+00
  0.00000000E+00  0.00000000E+00  0.00000000E+00
  0.00000000E+00  0.00000000E+00  0.00000000E+00
  0.00000000E+00  0.00000000E+00  0.00000000E+00
  0.00000000E+00  0.00000000E+00  0.00000000E+00
  0.00000000E+00  0.00000000E+00  0.00000000E+00
  0.00000000E+00  0.00000000E+00  0.00000000E+00
  0.00000000E+00  0.00000000E+00  0.00000000E+00
  0.00000000E+00  0.00000000E+00  0.00000000E+00
  0.00000000E+00  0.00000000E+00  0.00000000E+00
  0.00000000E+00  0.00000000E+00  0.00000000E+00
  0.00000000E+00  0.00000000E+00  0.00000000E+00
  0.00000000E+00  0.00000000E+00  0.00000000E+00
  0.00000000E+00  0.00000000E+00  0.00000000E+00
  0.00000000E+00  0.00000000E+00  0.00000000E+00
  0.00000000E+00  0.00000000E+00  0.00000000E+00
  0.00000000E+00  0.00000000E+00  0.00000000E+00
  0.00000000E+00  0.00000000E+00  0.00000000E+00
  0.00000000E+00  0.00000000E+00  0.00000000E+00
  0.00000000E+00  0.00000000E+00  0.00000000E+00
  0.00000000E+00  0.00000000E+00  0.00000000E+00
  0.00000000E+00  0.00000000E+00  0.00000000E+00
  0.00000000E+00  0.00000000E+00  0.00000000E+00
  0.00000000E+00  0.00000000E+00  0.00000000E+00
  0.00000000E+00  0.00000000E+00  0.00000000E+00
  0.00000000E+00  0.00000000E+00  0.00000000E+00
  0.00000000E+00  0.00000000E+00  0.00000000E+00
  0.00000000E+00  0.00000000E+00  0.00000000E+00
