Li Mg Bi  S  O 
 1.0000000000000000
    11.1784999999999997    0.0000000000000000    0.0000000000000000
     0.0000000000000000    9.5746000000000002    0.0000000000000000
     0.0000000000000000    0.0000000000000000   11.1823999999999995
 Li  Mg  Bi  S   O  
  10   3  16  16  16
Direct
  0.3603563444000075  0.0038388909110120  0.4546011182497347
  0.1305043815175825  1.0048160260864500  0.1999539930019560
  0.3754385946775438  0.0000682313379140  0.1843055493601726
  0.6269461068138108  1.0022766492602586  0.4258692490834925
  0.8923777575480012  0.0008149501369416  0.4439604939037680
  0.6144323958251123  0.9954564929903285  0.1845603253679402
  0.1145348474417445  1.0026814701865960  0.9425665185587835
  0.3713412727116081  0.0003723596943164  0.9221711962761853
  0.6345590243953901  0.9994491307318002  0.9406415147149133
  0.8769631604201334  0.0032669268802088  0.7029840001119537
  0.8713255842270498  0.0042232135146179  0.1779697809941580
  0.1357335101018401  1.0045223867036581  0.6796942996972739
  0.6140386094958555  0.9981094637086330  0.6831558773457614
  0.0005674914813411  0.3040345198149597  0.0644764428995270
  0.2502105924721374  0.7061490042140893  0.0622946705404028
  0.2529161856687772  0.2928955909796557  0.3102148964668041
  0.4989329103614334  0.7023822149185512  0.3115388630789194
  0.4979869503557402  0.2947479117357246  0.0616333460459217
  0.7473874797976954  0.6984857609967809  0.0633522204953778
  0.7508220162480127  0.3065508625813897  0.3126699156136577
  0.9970515332306609  0.7014440887177629  0.3119242185645064
  0.0004214859385917  0.3018337980273004  0.5637589071558143
  0.2500012162176203  0.7007837163656586  0.5615455440151308
  0.2469006071953416  0.3040034906013390  0.8151692720206876
  0.5008633568101424  0.6982081870633331  0.8142520968977810
  0.5007673452988374  0.3011132293730605  0.5597903906003808
  0.7483014774856148  0.6962842670556466  0.5641511973975881
  0.7477907154075205  0.3027273347246267  0.8099285512289751
  1.0034187327174686  0.6986983333349145  0.8099414818592440
  0.2503597672851755  0.3487423674873956  0.0622507025147603
 -0.0022517299853059  0.6620412409093712  0.0630575313116517
  0.5018654723574638  0.3468447825709176  0.3125743758749090
  0.2499750660331732  0.6641205766786422  0.3120197255671323
  0.7501100106634541  0.3340933023160469  0.0650695010161724
  0.5008505897511767  0.6538063825822577  0.0623773152886900
  0.9998759774376894  0.3434861791340957  0.3129191258262314
  0.7503690196493729  0.6501994128346740  0.3145899665722101
  0.2502326807663265  0.3192792900158418  0.5644798787991192
 -0.0005675402237201  0.6570984235539717  0.5630630862820679
  0.5011469257041549  0.3400901801817423  0.8111501128360111
  0.2500072162948183  0.6551183410445443  0.8129180935446338
  0.7507097493661156  0.3509799143059404  0.5629831555547380
  0.5001402762204120  0.6616842666776673  0.5640047605074805
  1.0011558300514138  0.3473660629440605  0.8125814135265076
  0.7484846328827771  0.6598958237995747  0.8125077889380873
  0.4992402210415554  0.0774367002696243  0.0602412909538186
  0.2493948316717115  0.9228113508667902  0.0591889307460981
  0.2663290650336340  0.0808657164152851  0.3001616178748189
 -0.0203443804744828  0.9175413758973434  0.2990674326400327
  1.0070202623886060  0.0870061086367218  0.0825597842286833
  0.7400721572189070  0.9160031573987146  0.0818705955570560
  0.7566058264644950  0.0848219130175589  0.3060483844455249
  0.5068675043907439  0.9188537764870840  0.3084992493997917
  0.5183666267178931  0.0838804731029670  0.5513489388799112
  0.2494158215027080  0.9140129254435987  0.5685384261513864
  0.2301585347387225  0.0869050904679824  0.8202938182705973
  0.0196042765147459  0.9142954182970594  0.7952363330666363
  0.9933535286452141  0.0846117783723202  0.5824803919729417
  0.7416852059823074  0.9176409378881785  0.5681754584133560
  0.7327446289409694  0.0864216905384171  0.7944535674495059
  0.5179182915129190  0.9155372591736038  0.8192907949432157
