Li Mg Bi  S  O 
 1.0000000000000000
    11.1784999999999997    0.0000000000000000    0.0000000000000000
     0.0000000000000000    9.5746000000000002    0.0000000000000000
     0.0000000000000000    0.0000000000000000   11.1823999999999995
 Li  Mg  Bi  S   O  
  12   2  16  16  16
Direct
  0.3588398872177768  0.0037550449189804  0.4388549556529308
  0.1251142708436149  1.0002378044006637  0.1998219241655225
  0.3769117334850771  0.0016003799786572  0.1849988849062858
  0.8946026033842439 -0.0036213745949033  0.4398508522599204
  0.6257028371930717  0.9999947579814547  0.1836097827358968
  0.8733717164424015 -0.0013160268125310  0.1863025049581996
  0.1239608192758062  1.0000976086519471  0.9408758915874019
  0.3741758475264740 -0.0012585897308422  0.9402244652733360
  0.3965149013793714 -0.0037764738680718  0.6848295122198863
  0.6253209593183463  0.9997301380223950  0.9234473762503581
  0.8756545055997056  0.0007557697576070  0.9395104482485199
  0.8541384655602681  0.0044498838627905  0.6833444475302617
  0.6251410825841401  1.0008441449908332  0.4413854038156469
  0.1257024198611183  0.9998462009781128  0.6825634157822759
 -0.0010767237731182  0.2949662862356148  0.0628708600453669
  0.2503741303267465  0.7058808630947908  0.0630035051513223
  0.2504158201669326  0.2922275729152724  0.3104255641817658
  0.5011676691431931  0.6949105508568902  0.3115159601968704
  0.4988384525389870  0.2950776068304656  0.0620868658953920
  0.7511635395395844  0.7049347736842345  0.0620002547294680
  0.7489270076990071  0.3050696906921216  0.3117080146807119
  0.9997161022533315  0.7079827273522438  0.3107168868378755
 -0.0011163747351988  0.3001798861967054  0.5636568035679993
  0.2515475543026918  0.6997025204114996  0.5637707636451444
  0.2485519094447213  0.3038155572154383  0.8126767453980344
  0.4994879059807485  0.7071291334155076  0.8152391680036470
  0.4990988386679263  0.3027988868828974  0.5604703601150230
  0.7505889429644053  0.7007129436228872  0.5609714901862620
  0.7494726577416096  0.2923178426660661  0.8145721919011483
  1.0010228872736027  0.6949197931685326  0.8117541220215593
  0.2507857454544086  0.3432923425432411  0.0620673133977810
  0.0011270068936383  0.6584806033496647  0.0626017536607723
  0.5009175237613701  0.3495149126415890  0.3138146779548239
  0.2514832184424751  0.6685714235999065  0.3143452460989281
  0.7497726156357513  0.3428322046188693  0.0633606420464345
  0.4996464160343385  0.6569195236326845  0.0634643304214141
  0.9995385137993661  0.3322760952338510  0.3126970814068311
  0.7491795122313204  0.6503672272050351  0.3131566410856249
  0.2482369893342879  0.3363351466326235  0.5639906180126276
  0.0007517607175002  0.6634212439476840  0.5635827904884039
  0.5000271557857437  0.3300549510809380  0.8123141172548211
  0.2495959583200920  0.6519989412357796  0.8116349606488578
  0.7504104829470648  0.3372657519452731  0.5630013669825499
  0.5019537136437789  0.6625040204020280  0.5640964663257761
  1.0016671486962274  0.3486653981456833  0.8129746130788567
  0.7507647161112572  0.6685723484236950  0.8134592420816674
  0.4995244287131392  0.0774033096859321  0.0660426666388232
  0.2503186334006020  0.9232418255598924  0.0597793889402468
  0.2649741689722177  0.0790770455900974  0.2993654246024995
 -0.0139139516782725  0.9213301714841786  0.2999686167828216
  0.9996533712934046  0.0775167669506340  0.0594009270706969
  0.7506491288933226  0.9224013500955247  0.0657567238228133
  0.7373532133325821  0.0846140079370349  0.3159048569948521
  0.5128005922226767  0.9156157954566084  0.3166757552216455
  0.4923023462669213  0.0850280361994567  0.5401356871553440
  0.2600735315503289  0.9168019929229785  0.5839823389296703
  0.2373015181937376  0.0833567165934026  0.8089663623027705
  0.0128697580257559  0.9152923155136669  0.8079741054777032
  0.9923600185626182  0.0830492205543625  0.5835134099357835
  0.7590344111025585  0.9180451919294521  0.5398295772527973
  0.7642530758449110  0.0788709355736739  0.8251987404814050
  0.4857857362523370  0.9203704303587293  0.8257497157302532
