Li6 Mg5 Bi16 S16 O16                    
   1.00000000000000     
    11.2317932157530329   -0.0513798621961063    0.0255538488381927
    -0.0434384282029361    9.5418131479227686    0.1308006522623320
     0.0253282297429804    0.1582873825911642   11.2205197287086058
   Li   Mg   Bi   S    O 
     6     5    16    16    16
Direct
  0.3449587492441023  0.0178983700486442  0.0884155353398902
  0.5752100332719061  0.9781866761952269  0.1794405691679663
  0.1788805331913721  0.9746950620483820  0.8899827883503499
  0.1321067064287036  0.0151623764543351  0.6630131219227867
  0.3763731419227455  0.0108987312289338  0.6883443311336473
  0.9181207267807817  0.0494544896106304  0.8974194231654531
  0.6203478572051259  0.0171636634916399  0.4375889874708651
  0.8872080174370902 -0.0013042281702791  0.4573377746054792
  0.8487686232819824  0.0038146952477966  0.1894857858981051
  0.6256594949494475  0.0084509661286820  0.9482711409657502
  0.6547918844070860  0.0081051544092954  0.6940712494006929
 -0.0016551355488391  0.3087978504852296  0.0705445464410384
  0.2430450117268060  0.6866323336021919  0.0629492899428292
  0.2593788650813010  0.1662748120666138  0.3191228454194772
  0.4918285648395846  0.6923756545691524  0.3240290782342953
  0.4921474969036199  0.3126352926116051  0.0687133148855578
  0.7414627145468058  0.6890056781248241  0.0733533547908674
  0.7530385425620308  0.3255448278387204  0.3213434760514891
 -0.0008661876420050  0.6961726391853692  0.3132870076197760
  0.0091106295364395  0.3129900891524623  0.5627082265113804
  0.2489152141251827  0.7143100566472260  0.5632314548119984
  0.2494949554505738  0.3066441788325761  0.8108096836894388
  0.4971097226517445  0.7005002465470879  0.8216533654585849
  0.4993746906551324  0.3168432220279757  0.5682647585742835
  0.7478733487700748  0.6888989270794733  0.5668134635344676
  0.7509577752509291  0.3270407311355896  0.8221805368303055
  0.0051907256926443  0.7188211271237290  0.8160046744732945
  0.2417835658683561  0.2842284942878809  0.0893764456688151
 -0.0131780169814037  0.6702612777519318  0.0648357083035268
  0.4878853168761053  0.2952094151311718  0.3303740383427717
  0.2406398498876522  0.6698212559565583  0.3136540694610864
  0.7376018030730931  0.3612139036622943  0.0736347277230591
  0.4942420373425351  0.6562163128062649  0.0676458636161377
  0.9885892958373953  0.3526606533270075  0.3188172841386203
  0.7403009251730353  0.6350251340558184  0.3174469103934851
  0.2483632861907784  0.3557486630547129  0.5735926040992541
 -0.0106495649537199  0.6893675734106656  0.5627848623032787
  0.4954585585143495  0.3602612191392874  0.8260787114554521
  0.2372544941228921  0.6420132856699177  0.8110640719794160
  0.7466126764271312  0.3616981386055042  0.5747254250496019
  0.4957864739214896  0.6521960823237289  0.5694445110497457
  0.9908187165041599  0.3298955983639574  0.8219255029320576
  0.7400020370297590  0.6634639516484769  0.8158076827188326
  0.5105691500223275  0.0946586245001680  0.0559190149545270
  0.2551187502378071  0.8885030071337116  0.0140715669670190
  0.3187328045306925 -0.0075023627006501  0.2535674071687175
 -0.0535531353670797  0.9066217140586887  0.3126827866220953
  0.9422572664472491  0.1029299954371393  0.0651220091598895
  0.7195648152747969  0.9152718281824729  0.0852152588852501
  0.7637815336388020  0.0943848056616273  0.3383269682640968
  0.5489366309594322  0.8949324529359149  0.3261907393912728
  0.5372618369844258  0.0966358815716825  0.5821920974996841
  0.2640712822414731  0.9219324615339712  0.5864939858241570
  0.2550306336052640  0.0969035952863805  0.7812556363814529
  0.0289986639769608  0.9309921386576661  0.8160769614802109
  0.0041640338815641  0.0982691177780648  0.5537771132860329
  0.7409524555301096  0.9216254689086107  0.5544759428881108
  0.7386456061111030  0.1004776390080707  0.8296733482720859
  0.5397335143690921  0.9179590491281627  0.8111009590302207
 
  0.00000000E+00  0.00000000E+00  0.00000000E+00
  0.00000000E+00  0.00000000E+00  0.00000000E+00
  0.00000000E+00  0.00000000E+00  0.00000000E+00
  0.00000000E+00  0.00000000E+00  0.00000000E+00
  0.00000000E+00  0.00000000E+00  0.00000000E+00
  0.00000000E+00  0.00000000E+00  0.00000000E+00
  0.00000000E+00  0.00000000E+00  0.00000000E+00
  0.00000000E+00  0.00000000E+00  0.00000000E+00
  0.00000000E+00  0.00000000E+00  0.00000000E+00
  0.00000000E+00  0.00000000E+00  0.00000000E+00
  0.00000000E+00  0.00000000E+00  0.00000000E+00
  0.00000000E+00  0.00000000E+00  0.00000000E+00
  0.00000000E+00  0.00000000E+00  0.00000000E+00
  0.00000000E+00  0.00000000E+00  0.00000000E+00
  0.00000000E+00  0.00000000E+00  0.00000000E+00
  0.00000000E+00  0.00000000E+00  0.00000000E+00
  0.00000000E+00  0.00000000E+00  0.00000000E+00
  0.00000000E+00  0.00000000E+00  0.00000000E+00
  0.00000000E+00  0.00000000E+00  0.00000000E+00
  0.00000000E+00  0.00000000E+00  0.00000000E+00
  0.00000000E+00  0.00000000E+00  0.00000000E+00
  0.00000000E+00  0.00000000E+00  0.00000000E+00
  0.00000000E+00  0.00000000E+00  0.00000000E+00
  0.00000000E+00  0.00000000E+00  0.00000000E+00
  0.00000000E+00  0.00000000E+00  0.00000000E+00
  0.00000000E+00  0.00000000E+00  0.00000000E+00
  0.00000000E+00  0.00000000E+00  0.00000000E+00
  0.00000000E+00  0.00000000E+00  0.00000000E+00
  0.00000000E+00  0.00000000E+00  0.00000000E+00
  0.00000000E+00  0.00000000E+00  0.00000000E+00
  0.00000000E+00  0.00000000E+00  0.00000000E+00
  0.00000000E+00  0.00000000E+00  0.00000000E+00
  0.00000000E+00  0.00000000E+00  0.00000000E+00
  0.00000000E+00  0.00000000E+00  0.00000000E+00
  0.00000000E+00  0.00000000E+00  0.00000000E+00
  0.00000000E+00  0.00000000E+00  0.00000000E+00
  0.00000000E+00  0.00000000E+00  0.00000000E+00
  0.00000000E+00  0.00000000E+00  0.00000000E+00
  0.00000000E+00  0.00000000E+00  0.00000000E+00
  0.00000000E+00  0.00000000E+00  0.00000000E+00
  0.00000000E+00  0.00000000E+00  0.00000000E+00
  0.00000000E+00  0.00000000E+00  0.00000000E+00
  0.00000000E+00  0.00000000E+00  0.00000000E+00
  0.00000000E+00  0.00000000E+00  0.00000000E+00
  0.00000000E+00  0.00000000E+00  0.00000000E+00
  0.00000000E+00  0.00000000E+00  0.00000000E+00
  0.00000000E+00  0.00000000E+00  0.00000000E+00
  0.00000000E+00  0.00000000E+00  0.00000000E+00
  0.00000000E+00  0.00000000E+00  0.00000000E+00
  0.00000000E+00  0.00000000E+00  0.00000000E+00
  0.00000000E+00  0.00000000E+00  0.00000000E+00
  0.00000000E+00  0.00000000E+00  0.00000000E+00
  0.00000000E+00  0.00000000E+00  0.00000000E+00
  0.00000000E+00  0.00000000E+00  0.00000000E+00
  0.00000000E+00  0.00000000E+00  0.00000000E+00
  0.00000000E+00  0.00000000E+00  0.00000000E+00
  0.00000000E+00  0.00000000E+00  0.00000000E+00
  0.00000000E+00  0.00000000E+00  0.00000000E+00
  0.00000000E+00  0.00000000E+00  0.00000000E+00
