Li4 Mg6 Bi16 S16 O16                    
   1.00000000000000     
    11.2809053271601503    0.2013614194823088   -0.0635645824096774
     0.1794063475642141    9.4665257915725043    0.2855597949697814
    -0.0748903391645367    0.3252707356567252   11.2453573747656126
   Li   Mg   Bi   S    O 
     4     6    16    16    16
Direct
  0.4783872107022376  0.0489713204822328  0.4128067714435965
  0.9224821981921771  0.0206953261064414  0.3660589894489771
  0.3785016341342769  0.0280881912758485  0.7000516492142529
  0.8924091230567281 -0.0240974813849338  0.0514097672995055
  0.6627666681732063  0.0056440221352017  0.1886831068055137
  0.1320565400737400 -0.0051995292841963  0.9353309414042127
  0.1306664465577486  0.0368178314256015  0.6788547839121798
  0.6298798957139027  0.0084923076547541  0.9271576810500066
  0.6245408943499104  0.0271288918435890  0.6690801769784291
  0.8761230839350080  0.0202491234877782  0.7036379700612506
  0.0079701933658007  0.3109576556211623  0.0612610182181038
  0.2479652629826331  0.6472500692139834  0.0646895868124068
  0.1884452907347954  0.0030755555167656  0.2257089059418489
  0.4845274735858178  0.7434850994885446  0.3067090530169610
  0.5005060051901681  0.3133658909218523  0.0679225327803600
  0.7448259145583918  0.6747374882439068  0.0637074772621496
  0.7540221412848324  0.3045124856665097  0.3059663090546316
  0.0123724681668850  0.6629592533356602  0.3028199320413680
 -0.0028691435604567  0.3385551703546890  0.5530015832137692
  0.2537622049396324  0.7679614475087088  0.5147034843076576
  0.2443741000401208  0.3275638326820010  0.8103495905026298
  0.4955457217347226  0.7087041190505018  0.8049200516789127
  0.4783257229965820  0.3376349510610372  0.5439450185084479
  0.7473209973261667  0.7181242209199180  0.5539742063216129
  0.7379320958813481  0.3372323294877700  0.8017175113867997
  0.0084625998336723  0.6929230931710477  0.8008427343062809
  0.2477203518529600  0.3269597371804419  0.0624173503200299
 -0.0118950283468219  0.6710043525382478  0.0518699456554887
  0.5030552217203849  0.2956184482742066  0.3103014867694103
  0.2343348978194521  0.5769532308969701  0.2945278497572216
  0.7486399764679462  0.3584818925274920  0.0612044902246782
  0.4904889306460976  0.6715731899139986  0.0463983651096148
 -0.0001750211769925  0.3235086356173006  0.3160763308419736
  0.7409137784597598  0.6517444069501920  0.2969881861962300
  0.2352309057379892  0.3353772950450377  0.5686713227457991
 -0.0162016014051212  0.6799864156488116  0.5528271231398962
  0.4965717689867243  0.3620666495112696  0.8104043297377528
  0.2351899196629731  0.6603430813077671  0.8018041212000975
  0.7366618271449731  0.3644711534498875  0.5637664326938622
  0.4831557007219844  0.6816940349404096  0.5473062139536620
  0.9943119939598425  0.3692221088623875  0.8172956181541740
  0.7319182273073033  0.6536860592056630  0.7956966735096377
  0.5552729748532089  0.1021378084532549  0.0595154466114721
  0.2192593096647222  0.8833444548578335  0.0718980485153566
  0.3205458263172452 -0.1089746428788824  0.3518938377561328
  0.0454031361377523  0.8924993504194382  0.3063963453580317
  0.0256200296115389  0.0879850851932744  0.0504467997551049
  0.7392317959650482  0.9075380860451150  0.0497809194976146
  0.7886033231785000  0.0901937837660926  0.2793274627734930
  0.5633722465510947  0.9319137454591184  0.3139421554907697
  0.4946696972835000  0.1161206655447439  0.5754690143983161
  0.2612822954454904  0.9478754219130179  0.6034599425487234
  0.2265255738353234  0.1012544063233904  0.8146131487368075
  0.0176062303714898  0.9299835906408326  0.8004499385022863
 -0.0122523127215777  0.1173625479212174  0.5944030868311699
  0.7603470486769114  0.9295608704475493  0.5997350134204320
  0.7356167431196108  0.1003952951907314  0.7963880831450760
  0.5268914882006367  0.9320061728467974  0.7982740836778480
 
  0.00000000E+00  0.00000000E+00  0.00000000E+00
  0.00000000E+00  0.00000000E+00  0.00000000E+00
  0.00000000E+00  0.00000000E+00  0.00000000E+00
  0.00000000E+00  0.00000000E+00  0.00000000E+00
  0.00000000E+00  0.00000000E+00  0.00000000E+00
  0.00000000E+00  0.00000000E+00  0.00000000E+00
  0.00000000E+00  0.00000000E+00  0.00000000E+00
  0.00000000E+00  0.00000000E+00  0.00000000E+00
  0.00000000E+00  0.00000000E+00  0.00000000E+00
  0.00000000E+00  0.00000000E+00  0.00000000E+00
  0.00000000E+00  0.00000000E+00  0.00000000E+00
  0.00000000E+00  0.00000000E+00  0.00000000E+00
  0.00000000E+00  0.00000000E+00  0.00000000E+00
  0.00000000E+00  0.00000000E+00  0.00000000E+00
  0.00000000E+00  0.00000000E+00  0.00000000E+00
  0.00000000E+00  0.00000000E+00  0.00000000E+00
  0.00000000E+00  0.00000000E+00  0.00000000E+00
  0.00000000E+00  0.00000000E+00  0.00000000E+00
  0.00000000E+00  0.00000000E+00  0.00000000E+00
  0.00000000E+00  0.00000000E+00  0.00000000E+00
  0.00000000E+00  0.00000000E+00  0.00000000E+00
  0.00000000E+00  0.00000000E+00  0.00000000E+00
  0.00000000E+00  0.00000000E+00  0.00000000E+00
  0.00000000E+00  0.00000000E+00  0.00000000E+00
  0.00000000E+00  0.00000000E+00  0.00000000E+00
  0.00000000E+00  0.00000000E+00  0.00000000E+00
  0.00000000E+00  0.00000000E+00  0.00000000E+00
  0.00000000E+00  0.00000000E+00  0.00000000E+00
  0.00000000E+00  0.00000000E+00  0.00000000E+00
  0.00000000E+00  0.00000000E+00  0.00000000E+00
  0.00000000E+00  0.00000000E+00  0.00000000E+00
  0.00000000E+00  0.00000000E+00  0.00000000E+00
  0.00000000E+00  0.00000000E+00  0.00000000E+00
  0.00000000E+00  0.00000000E+00  0.00000000E+00
  0.00000000E+00  0.00000000E+00  0.00000000E+00
  0.00000000E+00  0.00000000E+00  0.00000000E+00
  0.00000000E+00  0.00000000E+00  0.00000000E+00
  0.00000000E+00  0.00000000E+00  0.00000000E+00
  0.00000000E+00  0.00000000E+00  0.00000000E+00
  0.00000000E+00  0.00000000E+00  0.00000000E+00
  0.00000000E+00  0.00000000E+00  0.00000000E+00
  0.00000000E+00  0.00000000E+00  0.00000000E+00
  0.00000000E+00  0.00000000E+00  0.00000000E+00
  0.00000000E+00  0.00000000E+00  0.00000000E+00
  0.00000000E+00  0.00000000E+00  0.00000000E+00
  0.00000000E+00  0.00000000E+00  0.00000000E+00
  0.00000000E+00  0.00000000E+00  0.00000000E+00
  0.00000000E+00  0.00000000E+00  0.00000000E+00
  0.00000000E+00  0.00000000E+00  0.00000000E+00
  0.00000000E+00  0.00000000E+00  0.00000000E+00
  0.00000000E+00  0.00000000E+00  0.00000000E+00
  0.00000000E+00  0.00000000E+00  0.00000000E+00
  0.00000000E+00  0.00000000E+00  0.00000000E+00
  0.00000000E+00  0.00000000E+00  0.00000000E+00
  0.00000000E+00  0.00000000E+00  0.00000000E+00
  0.00000000E+00  0.00000000E+00  0.00000000E+00
  0.00000000E+00  0.00000000E+00  0.00000000E+00
  0.00000000E+00  0.00000000E+00  0.00000000E+00
