Li Mg Bi  S  O 
 1.0000000000000000
    11.1784999999999997    0.0000000000000000    0.0000000000000000
     0.0000000000000000    9.5746000000000002    0.0000000000000000
     0.0000000000000000    0.0000000000000000   11.1823999999999995
 Li  Mg  Bi  S   O  
   6   5  16  16  16
Direct
  0.3710885580401531  0.0000683728876289  0.4433471015136863
  0.1132969761145969  0.9989046806356144  0.1877632111815582
  0.6345209465584729  1.0005964552492959  0.1874714232802933
  0.8747348658301969 -0.0007274368508528  0.1878214936627835
  0.3758480139278186  0.0008044608397704  0.9260044961134628
  0.3746676931336648  0.0002186944533543  0.6857744247597675
  0.3746100931264372  0.0011864650798409  0.1866460191923382
  0.8749215207343496 -0.0006093526309367  0.4481180233669747
  0.1135947928407590  0.9995348862154964  0.6873233000678496
  0.8751180301820264 -0.0031914947952632  0.9271827802501201
  0.6363054983796989  0.9981958580949620  0.6865760721780232
 -0.0026733277129525  0.2991067267565740  0.0619812506632921
  0.2512195741214873  0.6999330253526044  0.0647880426074458
  0.2509555185193288  0.3027226351397935  0.3120518770820037
  0.4987890056545520  0.6997346453356889  0.3142290924462098
  0.4976861641489838  0.3028693176200526  0.0635020758335400
  0.7519569496944951  0.6973170610344216  0.0634864673730455
  0.7529287362901063  0.3010690089503033  0.3119104730898045
  0.9972814034580716  0.6991959849639411  0.3138850268388769
  0.0020624395218144  0.3038579809214643  0.5611233998231181
  0.2502713649041780  0.6997663073428075  0.5640861386738403
  0.2493411247338491  0.3019076190304615  0.8097581939544283
  0.5003198121514477  0.7002717364338277  0.8103530018097874
  0.5016697888328143  0.2970677453413795  0.5636463251466062
  0.7483004568578285  0.6941914922941861  0.5633114374686946
  0.7470389763117796  0.3009656763833969  0.8151468411915874
  1.0028621891576794  0.6938416755690935  0.8157867852274665
  0.2489781964763493  0.3401436050421482  0.0631208467760079
 -0.0006132952759520  0.6551445222971511  0.0632175974922903
  0.5003075678595608  0.3424375034960977  0.3108396176063567
  0.2489097226185162  0.6605116636639309  0.3142211750426359
  0.7515880237017213  0.3428500381013407  0.0610375251351151
  0.4986474073051753  0.6595150991846160  0.0646160348206458
  1.0007696521227751  0.3418653952240845  0.3142926879433961
  0.7499799093647631  0.6565317779412350  0.3157464039843623
  0.2500128702787915  0.3439774078669868  0.5630805092276886
 -0.0013326006546016  0.6651012994749117  0.5635903212344903
  0.5007321573839874  0.3413329090656785  0.8133180014971573
  0.2486842210571950  0.6578019897383627  0.8119464385879501
  0.7494908192331785  0.3337378534791376  0.5623891154667028
  0.5007437047004388  0.6566288162880153  0.5642083073202435
  0.9991081504922293  0.3356912599710126  0.8117451684002129
  0.7493781202136948  0.6677161715895443  0.8144691203214827
  0.4881195389660309  0.0867830321508454  0.0741986145617195
  0.2609691761144845  0.9158516212723431  0.0738477299334693
  0.2631780125369565  0.0869037796045168  0.3014180026158889
 -0.0191451011587078  0.9158798223158805  0.3115129046898715
  0.9786699106641513  0.0828319649934782  0.0636746116595866
  0.7707980313328288  0.9130805290320917  0.0649026366741462
  0.7705430831454495  0.0848021182900398  0.3107893906019253
  0.4864180340967623  0.9149508101886558  0.3005693846313643
  0.5008535578965090  0.0814045677185101  0.5807172861706650
  0.2514799069754637  0.9162952516772039  0.5802812678323694
  0.2502688664588464  0.0862251667370204  0.7901848329572945
 -0.0011935175756506  0.9125223401403266  0.8109460089343503
  0.9984069096736208  0.0855988857727868  0.5638822717275923
  0.7520773082505653  0.9127161881918634  0.5634139392404333
  0.7522428827232522  0.0825297351250401  0.8108279768004912
  0.4976053391557208  0.9166265305034331  0.7917013230366339
